.Version 8.6.3 of ABINIT
.(sequential version, prepared for a x86_64_linux_gnu5.4 computer)

 ABINIT is a project of the Universite Catholique de Louvain,
 Corning Inc. and other collaborators, see ~abinit/doc/developers/contributors.txt .
 Please read ~abinit/doc/users/acknowledgments.html for suggested
 acknowledgments of the ABINIT effort.

.Starting date : Sun 22 Apr 2018.
- ( at 09h27 )

- input  file    -> DOSwithoutGeom.in
- output file    -> DOSwithoutGeom.out
- root for input  files -> DOSwithoutGeom_i
- root for output files -> DOSwithoutGeom_o

 Symmetries : space group P1 (#  1); Bravais aP (primitive triclinic)
     intxc =       0    ionmov =       0      iscf =       7    lmnmax =       6
     lnmax =       6     mgfft =     432  mpssoang =       3    mqgrid =   20922
     natom =      30  nloc_mem =       1    nspden =       1   nspinor =       1
    nsppol =       1      nsym =       1    n1xccc =    2501    ntypat =       3
    occopt =       1   xclevel =       2
-    mband =         184        mffmem =           1         mkmem =           2
       mpw =      100476          nfft =     1769472          nkpt =           2
  Rough estimation (10% accuracy) of disk space for files :

------------- Echo of variables that govern the present computation ------------
-
- outvars: echo of selected default values
-   iomode0 =  0 , fftalg0 =112 , wfoptalg0 =  0
-
- outvars: echo of global parameters not present in the input file
-  max_nthreads =    0
-
 -outvars: echo values of preprocessed input variables --------
            acell      8.6808000000E+00  8.6808000000E+00  6.0000000000E+01 Bohr
              amu      4.78800000E+01  1.59994000E+01  1.06420000E+02
           diemac      1.20000000E+01
             ecut      6.00000000E+01 Hartree
-          fftalg         112
              ixc          11
              kpt      1.25000000E-01  5.00000000E-01  5.00000000E-01
                       3.75000000E-01  5.00000000E-01  5.00000000E-01
           kptopt           2
         kptrlatt        4    0    0      0    1    0      0    0    1
          kptrlen      8.68080000E+00
P           mkmem           2
            natom          30
            nband         184
            ngfft          64      64     432
             nkpt           2
            nstep          10
             nsym           1
           ntypat           3
              occ      2.000000  2.000000  2.000000  2.000000  2.000000  2.000000
                       2.000000  2.000000  2.000000  2.000000  2.000000  2.000000
                       2.000000  2.000000  2.000000  2.000000  2.000000  2.000000
                       2.000000  2.000000  2.000000  2.000000  2.000000  2.000000
                       2.000000  2.000000  2.000000  2.000000  2.000000  2.000000
                       2.000000  2.000000  2.000000  2.000000  2.000000  2.000000
                       2.000000  2.000000  2.000000  2.000000  2.000000  2.000000
                       2.000000  2.000000  2.000000  2.000000  2.000000  2.000000
                       2.000000  2.000000  2.000000  2.000000  2.000000  2.000000
                       2.000000  2.000000  2.000000  2.000000  2.000000  2.000000
                       2.000000  2.000000  2.000000  2.000000  2.000000  2.000000
                       2.000000  2.000000  2.000000  2.000000  2.000000  2.000000
                       2.000000  2.000000  2.000000  2.000000  2.000000  2.000000
                       2.000000  2.000000  2.000000  2.000000  2.000000  2.000000
                       2.000000  2.000000  2.000000  2.000000  2.000000  2.000000
                       2.000000  2.000000  2.000000  2.000000  2.000000  2.000000
                       2.000000  2.000000  2.000000  2.000000  2.000000  2.000000
                       2.000000  2.000000  2.000000  2.000000  2.000000  2.000000
                       2.000000  2.000000  2.000000  2.000000  2.000000  2.000000
                       2.000000  2.000000  2.000000  2.000000  2.000000  2.000000
                       2.000000  2.000000  2.000000  2.000000  2.000000  2.000000
                       2.000000  2.000000  2.000000  2.000000  2.000000  2.000000
                       2.000000  2.000000  2.000000  2.000000  2.000000  2.000000
                       2.000000  2.000000  2.000000  2.000000  2.000000  2.000000
                       2.000000  2.000000  2.000000  2.000000  2.000000  2.000000
                       2.000000  2.000000  2.000000  2.000000  2.000000  2.000000
                       2.000000  2.000000  2.000000  2.000000  2.000000  2.000000
                       2.000000  2.000000  2.000000  2.000000  2.000000  2.000000
                       2.000000  2.000000  2.000000  2.000000  2.000000  2.000000
                       2.000000  2.000000  2.000000  2.000000  2.000000  2.000000
                       0.000000  0.000000  0.000000  0.000000
           prtdos           2
           shiftk      5.00000000E-01  5.00000000E-01  5.00000000E-01
          spgroup           1
           toldfe      1.00000000E-02 Hartree
            typat      1  1  1  1  1  1  2  2  2  2  2  2  2  2  2  2  2  2  3  3
                       3  3  3  3  3  3  3  3  3  3
              wtk        0.50000    0.50000
           xangst      0.0000000000E+00  0.0000000000E+00  0.0000000000E+00
                       0.0000000000E+00  0.0000000000E+00  4.5936815123E+00
                       0.0000000000E+00  0.0000000000E+00  9.1873630247E+00
                       2.2968407562E+00  1.4793678043E+00  2.2968407562E+00
                       2.2968407562E+00  1.4793678043E+00  6.8905222685E+00
                       2.2968407562E+00  1.4793678043E+00  1.1484203781E+01
                       3.9876836484E+01  0.0000000000E+00  1.4240158683E+00
                       3.9876836484E+01  0.0000000000E+00  6.0176973806E+00
                       3.9876836484E+01  0.0000000000E+00  1.0611378893E+01
                       3.1696656440E+00  0.0000000000E+00  3.1696656440E+00
                       3.1696656440E+00  0.0000000000E+00  7.7633471563E+00
                       3.1696656440E+00  0.0000000000E+00  1.2357028669E+01
                       8.7282488785E-01  1.4793678043E+00  3.7208566245E+00
                       8.7282488785E-01  1.4793678043E+00  8.3145381368E+00
                       8.7282488785E-01  1.4793678043E+00  1.2908219649E+01
                       3.7208566245E+00  1.4793678043E+00  8.7282488785E-01
                       3.7208566245E+00  1.4793678043E+00  5.4665064002E+00
                       3.7208566245E+00  1.4793678043E+00  1.0060187913E+01
                       8.7282488785E-01  0.0000000000E+00  1.6691519184E+01
                       8.7282488785E-01  0.0000000000E+00  2.0582241693E+01
                       8.7282488785E-01  0.0000000000E+00  2.4472964201E+01
                       1.9453612542E+00  1.3755961537E+00  1.8067115338E+01
                       1.9453612542E+00  1.3755961537E+00  2.1957837846E+01
                       1.9453612542E+00  1.3755961537E+00  2.5848560355E+01
                       1.9453612542E+00 -1.3755961537E+00  1.8067115338E+01
                       1.9453612542E+00 -1.3755961537E+00  2.1957837846E+01
                       1.9453612542E+00 -1.3755961537E+00  2.5848560355E+01
                       0.0000000000E+00  0.0000000000E+00  1.9442658574E+01
                       0.0000000000E+00  0.0000000000E+00  2.3333381082E+01
                       0.0000000000E+00  0.0000000000E+00  2.7224103591E+01
            xcart      0.0000000000E+00  0.0000000000E+00  0.0000000000E+00
                       0.0000000000E+00  0.0000000000E+00  8.6808000000E+00
                       0.0000000000E+00  0.0000000000E+00  1.7361600000E+01
                       4.3404000000E+00  2.7956000000E+00  4.3404000000E+00
                       4.3404000000E+00  2.7956000000E+00  1.3021200000E+01
                       4.3404000000E+00  2.7956000000E+00  2.1702000000E+01
                       7.5356300000E+01  0.0000000000E+00  2.6910000000E+00
                       7.5356300000E+01  0.0000000000E+00  1.1371800000E+01
                       7.5356300000E+01  0.0000000000E+00  2.0052600000E+01
                       5.9898000000E+00  0.0000000000E+00  5.9898000000E+00
                       5.9898000000E+00  0.0000000000E+00  1.4670600000E+01
                       5.9898000000E+00  0.0000000000E+00  2.3351400000E+01
                       1.6494000000E+00  2.7956000000E+00  7.0314000000E+00
                       1.6494000000E+00  2.7956000000E+00  1.5712200000E+01
                       1.6494000000E+00  2.7956000000E+00  2.4393000000E+01
                       7.0314000000E+00  2.7956000000E+00  1.6494000000E+00
                       7.0314000000E+00  2.7956000000E+00  1.0330200000E+01
                       7.0314000000E+00  2.7956000000E+00  1.9011000000E+01
                       1.6494000000E+00  0.0000000000E+00  3.1542400000E+01
                       1.6494000000E+00  0.0000000000E+00  3.8894800000E+01
                       1.6494000000E+00  0.0000000000E+00  4.6247200000E+01
                       3.6762000000E+00  2.5995000000E+00  3.4141900000E+01
                       3.6762000000E+00  2.5995000000E+00  4.1494300000E+01
                       3.6762000000E+00  2.5995000000E+00  4.8846700000E+01
                       3.6762000000E+00 -2.5995000000E+00  3.4141900000E+01
                       3.6762000000E+00 -2.5995000000E+00  4.1494300000E+01
                       3.6762000000E+00 -2.5995000000E+00  4.8846700000E+01
                       0.0000000000E+00  0.0000000000E+00  3.6741300000E+01
                       0.0000000000E+00  0.0000000000E+00  4.4093700000E+01
                       0.0000000000E+00  0.0000000000E+00  5.1446100000E+01
             xred      0.0000000000E+00  0.0000000000E+00  0.0000000000E+00
                       0.0000000000E+00  0.0000000000E+00  1.4468000000E-01
                       0.0000000000E+00  0.0000000000E+00  2.8936000000E-01
                       5.0000000000E-01  3.2204405124E-01  7.2340000000E-02
                       5.0000000000E-01  3.2204405124E-01  2.1702000000E-01
                       5.0000000000E-01  3.2204405124E-01  3.6170000000E-01
                       8.6808013086E+00  0.0000000000E+00  4.4850000000E-02
                       8.6808013086E+00  0.0000000000E+00  1.8953000000E-01
                       8.6808013086E+00  0.0000000000E+00  3.3421000000E-01
                       6.9000552944E-01  0.0000000000E+00  9.9830000000E-02
                       6.9000552944E-01  0.0000000000E+00  2.4451000000E-01
                       6.9000552944E-01  0.0000000000E+00  3.8919000000E-01
                       1.9000552944E-01  3.2204405124E-01  1.1719000000E-01
                       1.9000552944E-01  3.2204405124E-01  2.6187000000E-01
                       1.9000552944E-01  3.2204405124E-01  4.0655000000E-01
                       8.0999447056E-01  3.2204405124E-01  2.7490000000E-02
                       8.0999447056E-01  3.2204405124E-01  1.7217000000E-01
                       8.0999447056E-01  3.2204405124E-01  3.1685000000E-01
[...]
 prteigrs : prtvol=0 or 1, do not print more k-points.

 Components of total free energy (in Hartree) :

    Kinetic energy  =  8.30919870947969E+02
    Hartree energy  =  3.69493944536383E+03
    XC energy       = -3.57158750380870E+02
    Ewald energy    =  6.64095820168120E+02
    PspCore energy  =  3.78634190939097E+01
    Loc. psp. energy= -6.82971419096785E+03
    NL   psp  energy=  5.59352997896133E-01
    >>>>>>>>> Etotal= -1.95849503277700E+03

 Other information on the energy :
    Total energy(eV)= -5.32933601247982E+04 ; Band energy (Ha)=  -2.8852629649E+02

 Cartesian components of stress tensor (hartree/bohr^3)
  sigma(1 1)= -4.72282925E-02  sigma(3 2)=  4.70654832E-04
  sigma(2 2)= -4.74840922E-02  sigma(3 1)= -7.34112868E-04
  sigma(3 3)=  3.48167066E-02  sigma(2 1)= -1.63162274E-04

-Cartesian components of stress tensor (GPa)         [Pressure=  5.8740E+02 GPa]
- sigma(1 1)= -1.38950410E+03  sigma(3 2)=  1.38471409E+01
- sigma(2 2)= -1.39702999E+03  sigma(3 1)= -2.15983426E+01
- sigma(3 3)=  1.02434270E+03  sigma(2 1)= -4.80039902E+00

== END DATASET(S) ==============================================================

 -outvars: echo values of variables after computation  --------
            acell      8.6808000000E+00  8.6808000000E+00  6.0000000000E+01 Bohr
              amu      4.78800000E+01  1.59994000E+01  1.06420000E+02
           diemac      1.20000000E+01
             ecut      6.00000000E+01 Hartree
           etotal     -1.9584950328E+03
            fcart     -1.0689812775E+00  6.4377906305E-01  1.2629278323E+01
                      -8.1325323085E-02  6.2414536155E-02  4.7623256829E-01
                       1.2520422135E-01  7.7630309136E-02 -3.2501584487E+00
                       1.6953339116E-01 -1.3380509133E-01  3.9610295947E+00
                       4.1773003793E-01 -2.8889691915E-01 -1.1360646903E+00
                      -2.1144849917E-01  4.0466673859E-01 -2.9931276895E+00
                       1.3184101106E-01 -7.6560754294E-01 -7.2941061447E+00
                      -2.0959890709E-01 -2.8253652912E-01  2.3028812459E-01
                       7.6253866142E-02 -1.7385652216E-01  1.9058312880E+00
                      -1.2571115643E-01 -3.4436560552E-01 -3.6576079038E+00
                      -7.2632772503E-02 -1.8566963969E-04  1.8141271274E+00
                       1.2228611319E-01 -1.9145699504E-01  1.7213102312E+00
                       3.1294291970E-01  4.0735255147E-01 -3.6312328153E+00
                       9.3346552230E-02  2.8754316353E-03  1.7072323103E+00
                      -1.5328213703E-01 -4.6524233943E-02  5.0939187867E+00
                       7.6320370060E-01  2.9677953496E-01 -7.2066781286E+00
                      -1.3848457406E-01  3.5707316281E-01  2.4061410465E-02
                      -1.6871843483E-02  6.0668408562E-02  1.7638258535E+00
                      -3.1961595189E-02 -9.6884356883E-03  4.7671948557E-02
                       8.3494242741E-01  2.5026785424E-02 -2.1025610510E+00
                       4.3303590621E-01  6.1043037277E-02  1.3946056351E+00
                       8.0136904015E-02 -7.8401496452E-01 -1.5235887663E+00
                       3.7237618931E-01 -8.6053932414E-01 -7.7413296406E-02
                       2.4612622376E-01 -1.0880270313E+00  5.6689870402E-01
                       6.9947629001E-02  7.8138872336E-01 -1.5826504188E+00
                       4.3577416727E-01  8.3005315788E-01 -6.6090293198E-02
                       2.2122595490E-01  1.0518505190E+00  5.2383840145E-01
                      -1.6778236124E+00 -2.5085707324E-02 -6.7118183430E-01
                      -1.1639799888E+00 -6.4974464621E-02  4.7567932389E-01
                       4.6194471581E-02 -3.0369228967E-03  8.5663185009E-01
-          fftalg         112
              ixc          11
              kpt      1.25000000E-01  5.00000000E-01  5.00000000E-01
                       3.75000000E-01  5.00000000E-01  5.00000000E-01
           kptopt           2
         kptrlatt        4    0    0      0    1    0      0    0    1
          kptrlen      8.68080000E+00
P           mkmem           2
            natom          30
            nband         184
            ngfft          64      64     432
             nkpt           2
            nstep          10
             nsym           1
           ntypat           3
              occ      2.000000  2.000000  2.000000  2.000000  2.000000  2.000000
                       2.000000  2.000000  2.000000  2.000000  2.000000  2.000000
                       2.000000  2.000000  2.000000  2.000000  2.000000  2.000000
                       2.000000  2.000000  2.000000  2.000000  2.000000  2.000000
                       2.000000  2.000000  2.000000  2.000000  2.000000  2.000000
                       2.000000  2.000000  2.000000  2.000000  2.000000  2.000000
                       2.000000  2.000000  2.000000  2.000000  2.000000  2.000000
                       2.000000  2.000000  2.000000  2.000000  2.000000  2.000000
                       2.000000  2.000000  2.000000  2.000000  2.000000  2.000000
                       2.000000  2.000000  2.000000  2.000000  2.000000  2.000000
                       2.000000  2.000000  2.000000  2.000000  2.000000  2.000000
                       2.000000  2.000000  2.000000  2.000000  2.000000  2.000000
                       2.000000  2.000000  2.000000  2.000000  2.000000  2.000000
                       2.000000  2.000000  2.000000  2.000000  2.000000  2.000000
                       2.000000  2.000000  2.000000  2.000000  2.000000  2.000000
                       2.000000  2.000000  2.000000  2.000000  2.000000  2.000000
                       2.000000  2.000000  2.000000  2.000000  2.000000  2.000000
                       2.000000  2.000000  2.000000  2.000000  2.000000  2.000000
                       2.000000  2.000000  2.000000  2.000000  2.000000  2.000000
                       2.000000  2.000000  2.000000  2.000000  2.000000  2.000000
                       2.000000  2.000000  2.000000  2.000000  2.000000  2.000000
                       2.000000  2.000000  2.000000  2.000000  2.000000  2.000000
                       2.000000  2.000000  2.000000  2.000000  2.000000  2.000000
                       2.000000  2.000000  2.000000  2.000000  2.000000  2.000000
                       2.000000  2.000000  2.000000  2.000000  2.000000  2.000000
                       2.000000  2.000000  2.000000  2.000000  2.000000  2.000000
                       2.000000  2.000000  2.000000  2.000000  2.000000  2.000000
                       2.000000  2.000000  2.000000  2.000000  2.000000  2.000000
                       2.000000  2.000000  2.000000  2.000000  2.000000  2.000000
                       2.000000  2.000000  2.000000  2.000000  2.000000  2.000000
                       0.000000  0.000000  0.000000  0.000000
           prtdos           2
           shiftk      5.00000000E-01  5.00000000E-01  5.00000000E-01
          spgroup           1
           strten     -4.7228292532E-02 -4.7484092156E-02  3.4816706614E-02
                       4.7065483208E-04 -7.3411286759E-04 -1.6316227380E-04
           toldfe      1.00000000E-02 Hartree
            typat      1  1  1  1  1  1  2  2  2  2  2  2  2  2  2  2  2  2  3  3
                       3  3  3  3  3  3  3  3  3  3
              wtk        0.50000    0.50000
           xangst      0.0000000000E+00  0.0000000000E+00  0.0000000000E+00
                       0.0000000000E+00  0.0000000000E+00  4.5936815123E+00
                       0.0000000000E+00  0.0000000000E+00  9.1873630247E+00
                       2.2968407562E+00  1.4793678043E+00  2.2968407562E+00
                       2.2968407562E+00  1.4793678043E+00  6.8905222685E+00
                       2.2968407562E+00  1.4793678043E+00  1.1484203781E+01
                       3.9876836484E+01  0.0000000000E+00  1.4240158683E+00
                       3.9876836484E+01  0.0000000000E+00  6.0176973806E+00
                       3.9876836484E+01  0.0000000000E+00  1.0611378893E+01
                       3.1696656440E+00  0.0000000000E+00  3.1696656440E+00
                       3.1696656440E+00  0.0000000000E+00  7.7633471563E+00
                       3.1696656440E+00  0.0000000000E+00  1.2357028669E+01
                       8.7282488785E-01  1.4793678043E+00  3.7208566245E+00
                       8.7282488785E-01  1.4793678043E+00  8.3145381368E+00
                       8.7282488785E-01  1.4793678043E+00  1.2908219649E+01
                       3.7208566245E+00  1.4793678043E+00  8.7282488785E-01
                       3.7208566245E+00  1.4793678043E+00  5.4665064002E+00
                       3.7208566245E+00  1.4793678043E+00  1.0060187913E+01
                       8.7282488785E-01  0.0000000000E+00  1.6691519184E+01
                       8.7282488785E-01  0.0000000000E+00  2.0582241693E+01
                       8.7282488785E-01  0.0000000000E+00  2.4472964201E+01
                       1.9453612542E+00  1.3755961537E+00  1.8067115338E+01
                       1.9453612542E+00  1.3755961537E+00  2.1957837846E+01
                       1.9453612542E+00  1.3755961537E+00  2.5848560355E+01
                       1.9453612542E+00 -1.3755961537E+00  1.8067115338E+01
                       1.9453612542E+00 -1.3755961537E+00  2.1957837846E+01
                       1.9453612542E+00 -1.3755961537E+00  2.5848560355E+01
                       0.0000000000E+00  0.0000000000E+00  1.9442658574E+01
                       0.0000000000E+00  0.0000000000E+00  2.3333381082E+01
                       0.0000000000E+00  0.0000000000E+00  2.7224103591E+01
            xcart      0.0000000000E+00  0.0000000000E+00  0.0000000000E+00
                       0.0000000000E+00  0.0000000000E+00  8.6808000000E+00
                       0.0000000000E+00  0.0000000000E+00  1.7361600000E+01
                       4.3404000000E+00  2.7956000000E+00  4.3404000000E+00
                       4.3404000000E+00  2.7956000000E+00  1.3021200000E+01
                       4.3404000000E+00  2.7956000000E+00  2.1702000000E+01
                       7.5356300000E+01  0.0000000000E+00  2.6910000000E+00
                       7.5356300000E+01  0.0000000000E+00  1.1371800000E+01
                       7.5356300000E+01  0.0000000000E+00  2.0052600000E+01
                       5.9898000000E+00  0.0000000000E+00  5.9898000000E+00
                       5.9898000000E+00  0.0000000000E+00  1.4670600000E+01
                       5.9898000000E+00  0.0000000000E+00  2.3351400000E+01
                       1.6494000000E+00  2.7956000000E+00  7.0314000000E+00
                       1.6494000000E+00  2.7956000000E+00  1.5712200000E+01
                       1.6494000000E+00  2.7956000000E+00  2.4393000000E+01
                       7.0314000000E+00  2.7956000000E+00  1.6494000000E+00
                       7.0314000000E+00  2.7956000000E+00  1.0330200000E+01
                       7.0314000000E+00  2.7956000000E+00  1.9011000000E+01
                       1.6494000000E+00  0.0000000000E+00  3.1542400000E+01
                       1.6494000000E+00  0.0000000000E+00  3.8894800000E+01
                       1.6494000000E+00  0.0000000000E+00  4.6247200000E+01
                       3.6762000000E+00  2.5995000000E+00  3.4141900000E+01
                       3.6762000000E+00  2.5995000000E+00  4.1494300000E+01
                       3.6762000000E+00  2.5995000000E+00  4.8846700000E+01
                       3.6762000000E+00 -2.5995000000E+00  3.4141900000E+01
                       3.6762000000E+00 -2.5995000000E+00  4.1494300000E+01
                       3.6762000000E+00 -2.5995000000E+00  4.8846700000E+01
                       0.0000000000E+00  0.0000000000E+00  3.6741300000E+01
                       0.0000000000E+00  0.0000000000E+00  4.4093700000E+01
                       0.0000000000E+00  0.0000000000E+00  5.1446100000E+01
             xred      0.0000000000E+00  0.0000000000E+00  0.0000000000E+00
                       0.0000000000E+00  0.0000000000E+00  1.4468000000E-01
                       0.0000000000E+00  0.0000000000E+00  2.8936000000E-01
                       5.0000000000E-01  3.2204405124E-01  7.2340000000E-02
                       5.0000000000E-01  3.2204405124E-01  2.1702000000E-01
                       5.0000000000E-01  3.2204405124E-01  3.6170000000E-01
                       8.6808013086E+00  0.0000000000E+00  4.4850000000E-02
                       8.6808013086E+00  0.0000000000E+00  1.8953000000E-01
                       8.6808013086E+00  0.0000000000E+00  3.3421000000E-01
                       6.9000552944E-01  0.0000000000E+00  9.9830000000E-02
                       6.9000552944E-01  0.0000000000E+00  2.4451000000E-01
                       6.9000552944E-01  0.0000000000E+00  3.8919000000E-01
                       1.9000552944E-01  3.2204405124E-01  1.1719000000E-01
                       1.9000552944E-01  3.2204405124E-01  2.6187000000E-01
                       1.9000552944E-01  3.2204405124E-01  4.0655000000E-01
                       8.0999447056E-01  3.2204405124E-01  2.7490000000E-02
                       8.0999447056E-01  3.2204405124E-01  1.7217000000E-01
                       8.0999447056E-01  3.2204405124E-01  3.1685000000E-01
                       1.9000552944E-01  0.0000000000E+00  5.2570666667E-01
                       1.9000552944E-01  0.0000000000E+00  6.4824666667E-01
                       1.9000552944E-01  0.0000000000E+00  7.7078666667E-01
                       4.2348631463E-01  2.9945396738E-01  5.6903166667E-01
                       4.2348631463E-01  2.9945396738E-01  6.9157166667E-01
                       4.2348631463E-01  2.9945396738E-01  8.1411166667E-01
                       4.2348631463E-01 -2.9945396738E-01  5.6903166667E-01
                       4.2348631463E-01 -2.9945396738E-01  6.9157166667E-01
                       4.2348631463E-01 -2.9945396738E-01  8.1411166667E-01
                       0.0000000000E+00  0.0000000000E+00  6.1235500000E-01
                       0.0000000000E+00  0.0000000000E+00  7.3489500000E-01
                       0.0000000000E+00  0.0000000000E+00  8.5743500000E-01
            znucl       22.00000    8.00000   46.00000

-
-  as well as % of the time and number of calls for node 0-
-<BEGIN_TIMER mpi_nprocs = 1, omp_nthreads = 1, mpi_rank = 0>
- cpu_time =         6694.1, wall_time =         6710.5
-
-                                                                  (-1=no count)
- projbd                      2750.953  41.1   2756.917  41.1          35128      -1.00        1.00       1.00
- nonlop(apply)               1930.500  28.8   1931.885  28.8          21980      -1.00        1.00       1.00
- fourwf%(pot)                 921.406  13.8    923.988  13.8          21980      -1.00        1.00       1.00
- vtowfk(ssdiag)               431.750   6.4    433.795   6.5             -1      -1.00        1.00       1.00
- nonlop(forstr)               112.969   1.7    113.608   1.7            360      -1.00        0.99       0.99
- fourwf%(den)                  88.766   1.3     89.113   1.3           3600      -1.00        1.00       1.00
- others (107)                  66.234   1.0     66.096   1.0             -1      -1.00        1.00       1.00
-<END_TIMER>
-
- subtotal                    6302.578  94.2   6315.402  94.1                                  1.00       1.00

- as well as % of the total time and number of calls

-<BEGIN_TIMER mpi_nprocs = 1, omp_nthreads = 1, mpi_rank = world>
- cpu_time =        6694.1, wall_time =        6710.5
-
-                                                                  (-1=no count)
- projbd                      2750.953  41.1   2756.917  41.1          35128      -1.00        1.00       1.00
- nonlop(apply)               1930.500  28.8   1931.885  28.8          21980      -1.00        1.00       1.00
- fourwf%(pot)                 921.406  13.8    923.988  13.8          21980      -1.00        1.00       1.00
- vtowfk(ssdiag)               431.750   6.4    433.795   6.5             -1      -1.00        1.00       1.00
- nonlop(forstr)               112.969   1.7    113.608   1.7            360      -1.00        0.99       0.99
- fourwf%(den)                  88.766   1.3     89.113   1.3           3600      -1.00        1.00       1.00
- others (107)                  66.234   1.0     66.096   1.0             -1      -1.00        1.00       1.00
-<END_TIMER>

- subtotal                    6302.578  94.2   6315.402  94.1                                  1.00       1.00

 Suggested references for the acknowledgment of ABINIT usage.

 Calculation completed.
.Delivered   3 WARNINGs and   2 COMMENTs to log file.