.Version 8.6.3 of ABINIT
.(sequential version, prepared for a x86_64_linux_gnu5.4 computer)

 ABINIT is a project of the Universite Catholique de Louvain,
 Corning Inc. and other collaborators, see ~abinit/doc/developers/contributors.txt .
 Please read ~abinit/doc/users/acknowledgments.html for suggested
 acknowledgments of the ABINIT effort.

.Starting date : Sat 21 Apr 2018.
- ( at 18h35 )

 === Build Information ===
  Version       : 8.6.3
  Build target  : x86_64_linux_gnu5.4
  Build date    : 20180412

 === Optimizations ===
  Debug level        : basic
  Optimization level : standard
  Architecture       : unknown_unknown

 === Multicore ===
  Parallel build : no
  Parallel I/O   : no
  openMP support : no
  GPU support    : no

 === Connectors / Fallbacks ===
  Connectors on : yes
  Fallbacks on  : yes
  DFT flavor    : none
  FFT flavor    : none
  LINALG flavor : netlib-fallback
  MATH flavor   : none
  TIMER flavor  : abinit
  TRIO flavor   : none

 === Experimental features ===
  Bindings            : @enable_bindings@
  Exports             : no
  GW double-precision : no

 Default optimizations:
   -O2 -mtune=native -march=native

 Optimizations for 20_datashare:
   -O0

 CPP options activated during the build:

                    CC_GNU                   CXX_GNU                    FC_GNU

 HAVE_FC_ALLOCATABLE_DT...             HAVE_FC_ASYNC         HAVE_FC_BACKTRACE

  HAVE_FC_COMMAND_ARGUMENT      HAVE_FC_COMMAND_LINE        HAVE_FC_CONTIGUOUS

           HAVE_FC_CPUTIME              HAVE_FC_EXIT             HAVE_FC_FLUSH

             HAVE_FC_GAMMA            HAVE_FC_GETENV   HAVE_FC_IEEE_EXCEPTIONS

          HAVE_FC_INT_QUAD             HAVE_FC_IOMSG     HAVE_FC_ISO_C_BINDING

  HAVE_FC_ISO_FORTRAN_2008        HAVE_FC_LONG_LINES        HAVE_FC_MOVE_ALLOC

           HAVE_FC_PRIVATE         HAVE_FC_PROTECTED         HAVE_FC_STREAM_IO

            HAVE_FC_SYSTEM          HAVE_FORTRAN2003        HAVE_LIBPAW_ABINIT

      HAVE_LIBTETRA_ABINIT             HAVE_OS_LINUX         HAVE_TIMER_ABINIT

              USE_MACROAVE

- input  file    -> RutileGeom2.in
- output file    -> RutileGeom2.out
- root for input  files -> RutileGeom2_i
- root for output files -> RutileGeom2_o

-instrng: 92 lines of input have been read from file RutileGeom2.in

 Please give name of formatted atomic psp file
 iofn2 : for atom type 1, psp file is ../../../Psps_for_tests/22ti.pspnc

 Please give name of formatted atomic psp file
 iofn2 : for atom type 2, psp file is ../../../Psps_for_tests/8o.pspnc
  read the values zionpsp=  4.0 , pspcod=   1 , lmax=   2
  read the values zionpsp=  6.0 , pspcod=   1 , lmax=   1

 inpspheads: deduce mpsang = 3, n1xccc = 2501.
 invars1 : treat image number: 1

 symlatt : the Bravais lattice is tP (primitive tetragonal)
  xcart  is defined in input file
 ingeo : takes atomic coordinates from input array xcart
 symfind : exit, nsym=8
   symrel matrices, symafm and tnons are :
   1       1   0   0     0   1   0     0   0   1       1      0.0000  0.0000  0.0000
   2       1   0   0     0  -1   0     0   0  -1       1      0.5000 -0.5000  0.5000
   3      -1   0   0     0   1   0     0   0  -1       1      0.0000  0.0000  0.0000
   4      -1   0   0     0  -1   0     0   0   1       1      0.5000 -0.5000  0.5000
   5       0   0   1     0   1   0     1   0   0       1      0.0000  0.0000  0.0000
   6       0   0   1     0  -1   0    -1   0   0       1      0.5000 -0.5000  0.5000
   7       0   0  -1     0   1   0    -1   0   0       1      0.0000  0.0000  0.0000
   8       0   0  -1     0  -1   0     1   0   0       1      0.5000 -0.5000  0.5000

 symlatt : the Bravais lattice is tP (primitive tetragonal)

 symlatt : the Bravais lattice is tP (primitive tetragonal)
 symspgr : spgroup= 113  P-4 2_1 m   (=D2d^3)
 symspgr : optical characteristics = uniaxial
 Optical axis (in reduced coordinates, real space ) :   0   1   0
 ingeo : angdeg(1:3)=   90.00000000   90.00000000   90.00000000
 invars2: take the default value of fband=  1.25000000E-01
 chkneu : initialized the occupation numbers for occopt=    1, spin-unpolarized or antiferromagnetic case :
  2.00  2.00  2.00  2.00  2.00  2.00  2.00  2.00  2.00  2.00  2.00  2.00
  2.00  2.00  2.00  2.00  0.00
mpi_setup: mkmem  undefined in the input file.Use default mkmem  = nkpt
 mpi_setup: With nkpt_me=8 and mkmem  = 8, ground state wf handled in core.
mpi_setup: mkqmem undefined in the input file.Use default mkqmem = nkpt
 mpi_setup: With nkpt_me=8 and mkqmem = 8, ground state wf handled in core.
mpi_setup: mk1mem undefined in the input file.Use default mk1mem = nkpt
 mpi_setup: With nkpt_me=8 and mk1mem = 8, ground state wf handled in core.
 For input ecut=  1.152000E+01 best grid ngfft=      30      18      30
       max ecut=  1.278675E+01

 ==== FFT mesh ====
  FFT mesh divisions ........................    30   18   30
  Augmented FFT divisions ...................    31   19   30
  FFT algorithm .............................   112
  FFT cache size ............................    16
 getmpw: optimal value of mpw= 794

 Symmetries : space group P-4 2_1 m (#113); Bravais tP (primitive tetrag.)

 getdim_nloc : deduce lmnmax  =   8, lnmax  =   2,
                      lmnmaxso=   8, lnmaxso=   2.
     intxc =       0    ionmov =       2      iscf =       7    lmnmax =       2
     lnmax =       2     mgfft =      30  mpssoang =       3    mqgrid =    3001
     natom =       6  nloc_mem =       1    nspden =       1   nspinor =       1
    nsppol =       1      nsym =       8    n1xccc =    2501    ntypat =       2
    occopt =       1   xclevel =       1
-    mband =          17        mffmem =           1         mkmem =           8
       mpw =         794          nfft =       16200          nkpt =           8
  Rough estimation (10% accuracy) of disk space for files :

 The job will continue.
------------- Echo of variables that govern the present computation ------------
-
- outvars: echo of selected default values
-   iomode0 =  0 , fftalg0 =112 , wfoptalg0 =  0
-
- outvars: echo of global parameters not present in the input file
-  max_nthreads =    0
-
 -outvars: echo values of preprocessed input variables --------
            acell      8.6808000000E+00  5.5911000000E+00  8.6808000000E+00 Bohr
              amu      4.78800000E+01  1.59994000E+01
           diemac      1.20000000E+01
          dilatmx      1.20000000E+00
             ecut      8.00000000E+00 Hartree
           ecutsm      5.00000000E-01 Hartree
-          fftalg         112
           getwfk          -1
           ionmov           2
              kpt     -2.50000000E-01  5.00000000E-01  0.00000000E+00
                       5.00000000E-01 -2.50000000E-01  0.00000000E+00
                      -2.50000000E-01 -2.50000000E-01  2.50000000E-01
                      -2.50000000E-01  0.00000000E+00  0.00000000E+00
                       5.00000000E-01  5.00000000E-01  2.50000000E-01
                       0.00000000E+00 -2.50000000E-01  0.00000000E+00
                       5.00000000E-01 -2.50000000E-01  5.00000000E-01
                       5.00000000E-01  0.00000000E+00  2.50000000E-01
         kptrlatt        2   -2    2      0    4    0     -2   -2    2
          kptrlen      2.23644000E+01
P           mkmem           8
            natom           6
            nband          17
            ngfft          30      18      30
             nkpt           8
            nstep          10
             nsym           8
            ntime          10
           ntypat           2
              occ      2.000000  2.000000  2.000000  2.000000  2.000000  2.000000
                       2.000000  2.000000  2.000000  2.000000  2.000000  2.000000
                       2.000000  2.000000  2.000000  2.000000  0.000000
          optcell           1
           shiftk      5.00000000E-01  0.00000000E+00  5.00000000E-01
          spgroup         113
           symrel      1  0  0   0  1  0   0  0  1       1  0  0   0 -1  0   0  0 -1
                      -1  0  0   0  1  0   0  0 -1      -1  0  0   0 -1  0   0  0  1
                       0  0  1   0  1  0   1  0  0       0  0  1   0 -1  0  -1  0  0
                       0  0 -1   0  1  0  -1  0  0       0  0 -1   0 -1  0   1  0  0
            tnons      0.0000000  0.0000000  0.0000000     0.5000000 -0.4999911  0.5000000
                       0.0000000  0.0000000  0.0000000     0.5000000 -0.4999911  0.5000000
                       0.0000000  0.0000000  0.0000000     0.5000000 -0.4999911  0.5000000
                       0.0000000  0.0000000  0.0000000     0.5000000 -0.4999911  0.5000000
           toldfe      1.00000000E-04 Hartree
            typat      1  1  2  2  2  2
              wtk        0.12500    0.12500    0.25000    0.12500    0.12500    0.06250
                         0.06250    0.12500
           xangst      0.0000000000E+00  0.0000000000E+00  0.0000000000E+00
                       2.2968407562E+00  1.4793678043E+00  2.2968407562E+00
                       1.4240158683E+00  0.0000000000E+00  1.4240158683E+00
                       3.1696656440E+00  0.0000000000E+00  3.1696656440E+00
                       3.7208566245E+00  1.4793678043E+00  8.7282488785E-01
                       8.7282488785E-01  1.4793678043E+00  3.7208566245E+00
            xcart      0.0000000000E+00  0.0000000000E+00  0.0000000000E+00
                       4.3404000000E+00  2.7956000000E+00  4.3404000000E+00
                       2.6910000000E+00  0.0000000000E+00  2.6910000000E+00
                       5.9898000000E+00  0.0000000000E+00  5.9898000000E+00
                       7.0314000000E+00  2.7956000000E+00  1.6494000000E+00
                       1.6494000000E+00  2.7956000000E+00  7.0314000000E+00
             xred      0.0000000000E+00  0.0000000000E+00  0.0000000000E+00
                       5.0000000000E-01  5.0000894278E-01  5.0000000000E-01
                       3.0999447056E-01  0.0000000000E+00  3.0999447056E-01
                       6.9000552944E-01  0.0000000000E+00  6.9000552944E-01
                       8.0999447056E-01  5.0000894278E-01  1.9000552944E-01
                       1.9000552944E-01  5.0000894278E-01  8.0999447056E-01
            znucl       22.00000    8.00000

 chkinp: Checking input parameters for consistency.

 chkinp: WARNING -
   Chksymbreak=1 . Found potentially symmetry-breaking value of tnons,
   which is neither a rational fraction in 1/8th nor in 1/12th :
   for the symmetry number    2
   symrel is   1  0  0  0 -1  0  0  0 -1
   tnons is     5.000000E-01   -4.999911E-01    5.000000E-01
   Please, read the description of the input variable chksymbreak,
   then, if you feel confident, you might switch it to zero, or consult with the forum.

[...]

 chkinp: WARNING -
   Chksymbreak=1 . Found potentially symmetry-breaking value of tnons,
   which is neither a rational fraction in 1/8th nor in 1/12th :
   for the symmetry number    6
   symrel is   0  0  1  0 -1  0 -1  0  0
   tnons is     5.000000E-01   -4.999911E-01    5.000000E-01
   Please, read the description of the input variable chksymbreak,
   then, if you feel confident, you might switch it to zero, or consult with the forum.

[...]
 ene:  1.03E-01
 vtowfk : number of one-way 3D ffts skipped in vtowfk until now =342
     eigenvalues (hartree) for   17  bands
              after    2 non-SCF iterations with    4 CG line minimizations
 -9.2894E-01 -9.1593E-01 -9.1593E-01 -9.1580E-01 -2.2484E-01 -1.3669E-01
 -1.3008E-01 -1.2205E-01 -1.1641E-01 -1.1641E-01 -1.0589E-01 -9.4733E-02
 -9.4733E-02 -3.0171E-02 -3.0171E-02  4.7819E-03  1.0329E-01
 non-scf iterations; kpt #     7  , k= (  0.50000 -0.25000  0.50000  ), band residuals:
 res:  1.15E-10  1.84E-10  2.70E-11  2.70E-11  6.92E-11  9.24E-11  2.73E-11  2.73E-11
 res:  3.93E-12  3.93E-12  5.13E-11  3.82E-11  8.42E-12  8.42E-12  2.28E-11  2.28E-11
 res:  3.53E-10
 ene: -9.22E-01 -9.22E-01 -9.17E-01 -9.17E-01 -2.06E-01 -2.06E-01 -1.42E-01 -1.42E-01
 ene: -9.09E-02 -9.09E-02 -8.33E-02 -8.33E-02 -3.17E-02 -3.17E-02 -2.92E-02 -2.92E-02
 ene:  1.77E-01
 vtowfk : number of one-way 3D ffts skipped in vtowfk until now =343
     eigenvalues (hartree) for   17  bands
              after    2 non-SCF iterations with    4 CG line minimizations
 -9.2178E-01 -9.2178E-01 -9.1658E-01 -9.1658E-01 -2.0588E-01 -2.0588E-01
 -1.4214E-01 -1.4214E-01 -9.0919E-02 -9.0919E-02 -8.3264E-02 -8.3264E-02
 -3.1708E-02 -3.1708E-02 -2.9238E-02 -2.9238E-02  1.7695E-01
 non-scf iterations; kpt #     8  , k= (  0.50000  0.00000  0.25000  ), band residuals:
 res:  1.31E-10  2.50E-10  2.74E-11  2.87E-11  9.21E-11  8.69E-11  1.11E-10  6.48E-11
 res:  3.56E-11  3.41E-11  6.62E-12  6.62E-12  1.54E-11  1.54E-11  4.63E-11  4.73E-11
 res:  3.73E-10
 ene: -9.25E-01 -9.25E-01 -9.16E-01 -9.16E-01 -2.02E-01 -2.02E-01 -1.20E-01 -1.20E-01
 ene: -7.50E-02 -7.50E-02 -6.63E-02 -6.63E-02 -4.35E-02 -4.35E-02 -2.22E-02 -2.22E-02
 ene:  1.39E-01
 vtowfk : number of one-way 3D ffts skipped in vtowfk until now =344
     eigenvalues (hartree) for   17  bands
              after    2 non-SCF iterations with    4 CG line minimizations
 -9.2525E-01 -9.2525E-01 -9.1605E-01 -9.1605E-01 -2.0156E-01 -2.0156E-01
 -1.2033E-01 -1.2033E-01 -7.4956E-02 -7.4956E-02 -6.6325E-02 -6.6325E-02
 -4.3505E-02 -4.3505E-02 -2.2221E-02 -2.2221E-02  1.3904E-01
 Total charge density [el/Bohr^3]
      Maximum=    5.4423E-01  at reduced coord.    0.6667    0.0000    0.7333
      Minimum=    1.3580E-03  at reduced coord.    0.5000    0.5000    0.5000
   Integrated=    3.2000E+01
 ETOT  3  -68.828546810516    -4.890E-08 4.141E-10 6.834E-08
 scprqt: <Vxc>= -3.8008330E-01 hartree

 At SCF step    3, etot is converged :
  for the second time, diff in etot=  4.890E-08 < toldfe=  1.000E-04

[...]

 fftdatar_write: About to write data to: RutileGeom2_o_TIM9_DEN with iomode IO_MODE_FORTRAN

---OUTPUT-----------------------------------------------------------------------

 Cartesian coordinates (xcart) [bohr]
  6.18346547040380E-18  3.77979246524159E-05  1.16163108867908E-18
  4.92999933253678E+00  3.17531611739187E+00  4.92999933253678E+00
  2.96065221780095E+00  2.77082388394769E-05  2.96065221780095E+00
  6.89934644727262E+00  2.77082388394769E-05  6.89934644727262E+00
  7.89065155033772E+00  3.17532620707768E+00  1.96934711473583E+00
  1.96934711473583E+00  3.17532620707768E+00  7.89065155033772E+00
 Reduced coordinates (xred)
  6.27126400362213E-19  5.95187209013909E-06  1.17812499589260E-19
  5.00000000000000E-01  5.00002990911977E-01  5.00000000000000E-01
  3.00269028259433E-01  4.36309387174383E-06  3.00269028259433E-01
  6.99730971740567E-01  4.36309387174383E-06  6.99730971740567E-01
  8.00269028259433E-01  5.00004579690196E-01  1.99730971740567E-01
  1.99730971740567E-01  5.00004579690196E-01  8.00269028259433E-01
 Cartesian forces (fcart) [Ha/bohr]; max,rms= 4.91049E-06 3.29207E-06 (free atoms)
 -0.00000000000000E+00 -1.03829354362480E-06  2.82344315751433E-22
 -0.00000000000000E+00  1.03829354362480E-06  2.82344315751433E-22
  4.91048749349503E-06  6.94356962035393E-08  4.91048749349503E-06
 -4.91048749349503E-06  6.94356962035393E-08 -4.91048749349503E-06
  4.91048749349503E-06 -6.94356962035388E-08 -4.91048749349503E-06
 -4.91048749349503E-06 -6.94356962035398E-08  4.91048749349503E-06
 Reduced forces (fred)
 -0.00000000000000E+00  6.59378100447431E-06 -2.78391457640024E-21
 -0.00000000000000E+00 -6.59378100447431E-06 -2.78391457640024E-21
 -4.84174001307214E-05 -4.40957932822122E-07 -4.84174001307214E-05
  4.84174001307214E-05 -4.40957932822122E-07  4.84174001307214E-05
 -4.84174001307214E-05  4.40957932822118E-07  4.84174001307214E-05
  4.84174001307214E-05  4.40957932822125E-07 -4.84174001307214E-05
 Scale of Primitive Cell (acell) [bohr]
  9.85999866507356E+00  6.35059424664694E+00  9.85999866507356E+00
 Real space primitive translations (rprimd) [bohr]
  9.85999866507356E+00  0.00000000000000E+00  0.00000000000000E+00
  0.00000000000000E+00  6.35059424664694E+00  0.00000000000000E+00
  0.00000000000000E+00  0.00000000000000E+00  9.85999866507356E+00
 Unitary Cell Volume (ucvol) [Bohr^3]=  6.17402065243527E+02
 Angles (23,13,12)= [degrees]
  9.00000000000000E+01  9.00000000000000E+01  9.00000000000000E+01
 Lengths [Bohr]
  9.85999866507356E+00  6.35059424664694E+00  9.85999866507356E+00
 Stress tensor in cartesian coordinates (strten) [Ha/bohr^3]
  2.52726008820770E-04  0.00000000000000E+00  0.00000000000000E+00
  0.00000000000000E+00 -5.04899873148583E-04  0.00000000000000E+00
  0.00000000000000E+00  0.00000000000000E+00  2.52726008820770E-04
 Total energy (etotal) [Ha]= -6.88285468105159E+01

 Difference of energy with previous step (new-old):
           Absolute (Ha)=-1.81516E-08
           Relative     =-2.63722E-10

 At Broyd/MD step   9, gradients are converged :
  max grad (force/stress) = 1.8405E-05 < tolmxf= 5.0000E-05 ha/bohr (free atoms)

 Geometry Optimization Precondition:           0

 ----iterations are completed or convergence reached----

 === Gap info ===
  >>>> For spin  1
   Minimum optical gap =   1.2989 [eV], located at k-point      :  -0.2500  0.0000  0.0000
   Fundamental gap     =   1.2989 [eV], Top of valence bands at :  -0.2500  0.0000  0.0000
                                        Bottom of conduction at :  -0.2500  0.0000  0.0000
 Mean square residual over all n,k,spin=   6.7361E-11; max=  4.1414E-10
  -0.2500  0.5000  0.0000    1  3.45282E-10 kpt; spin; max resid(k); each band:
  7.30E-11 1.92E-10 6.45E-12 5.27E-12 2.04E-11 3.58E-11 8.02E-11 4.22E-11
  9.04E-12 9.88E-12 2.75E-11 1.91E-11 3.21E-11 2.64E-11 1.79E-11 1.75E-11
  3.45E-10
   0.5000 -0.2500  0.0000    1  3.88225E-10 kpt; spin; max resid(k); each band:
  1.67E-10 1.85E-10 6.08E-12 6.08E-12 1.08E-10 7.51E-11 3.64E-11 3.47E-11
  3.48E-11 3.60E-11 1.62E-11 1.62E-11 2.23E-11 2.09E-11 2.82E-11 2.62E-11
  3.88E-10
  -0.2500 -0.2500  0.2500    1  3.82360E-10 kpt; spin; max resid(k); each band:
  3.10E-10 3.09E-11 1.65E-11 7.69E-12 3.30E-11 9.80E-11 1.13E-10 2.37E-11
  2.16E-11 3.67E-12 1.46E-11 1.62E-11 2.18E-11 3.58E-11 1.70E-11 1.24E-11
  3.82E-10
  -0.2500  0.0000  0.0000    1  3.90830E-10 kpt; spin; max resid(k); each band:
  3.66E-10 4.20E-11 1.32E-11 6.18E-12 3.22E-11 7.68E-11 3.22E-11 1.66E-11
  5.46E-11 2.51E-12 2.39E-10 1.29E-11 1.22E-11 1.13E-11 2.35E-11 6.56E-11
  3.91E-10
   0.5000  0.5000  0.2500    1  2.66458E-10 kpt; spin; max resid(k); each band:
  1.42E-10 8.14E-11 7.87E-12 8.73E-12 1.17E-11 1.15E-11 2.46E-11 2.99E-11
  2.02E-11 2.47E-11 1.48E-11 1.49E-11 3.36E-11 3.86E-11 1.79E-11 1.79E-11
  2.66E-10
   0.0000 -0.2500  0.0000    1  4.14143E-10 kpt; spin; max resid(k); each band:
  3.45E-10 7.06E-12 7.06E-12 1.52E-11 1.30E-11 1.65E-11 2.19E-10 7.85E-11
  1.63E-11 1.63E-11 1.03E-11 9.29E-12 9.29E-12 1.79E-11 1.79E-11 3.31E-12
  4.14E-10
   0.5000 -0.2500  0.5000    1  3.52707E-10 kpt; spin; max resid(k); each band:
  1.15E-10 1.84E-10 2.70E-11 2.70E-11 6.92E-11 9.24E-11 2.73E-11 2.73E-11
  3.93E-12 3.93E-12 5.13E-11 3.82E-11 8.42E-12 8.42E-12 2.28E-11 2.28E-11
  3.53E-10
   0.5000  0.0000  0.2500    1  3.73285E-10 kpt; spin; max resid(k); each band:
  1.31E-10 2.50E-10 2.74E-11 2.87E-11 9.21E-11 8.69E-11 1.11E-10 6.48E-11
  3.56E-11 3.41E-11 6.62E-12 6.62E-12 1.54E-11 1.54E-11 4.63E-11 4.73E-11
  3.73E-10

 outwf: write wavefunction to file RutileGeom2_o_WFK, with iomode -1
 prteigrs : about to open file RutileGeom2_o_EIG
 Fermi (or HOMO) energy (hartree) =   0.00795   Average Vxc (hartree)=  -0.38008
 Eigenvalues (hartree) for nkpt=   8  k points:
 kpt#   1, nband= 17, wtk=  0.12500, kpt= -0.2500  0.5000  0.0000 (reduced coord)
  -0.91962   -0.91962   -0.91577   -0.91577   -0.18894   -0.18894   -0.16022   -0.16022
  -0.12331   -0.12331   -0.08514   -0.08514   -0.04415   -0.04415   -0.03343   -0.03343
   0.21614
 kpt#   2, nband= 17, wtk=  0.12500, kpt=  0.5000 -0.2500  0.0000 (reduced coord)
  -0.92308   -0.92308   -0.91525   -0.91525   -0.18967   -0.18967   -0.15127   -0.15127
  -0.10909   -0.10909   -0.07306   -0.07306   -0.04801   -0.04801   -0.01603   -0.01603
   0.17219
 kpt#   3, nband= 17, wtk=  0.25000, kpt= -0.2500 -0.2500  0.2500 (reduced coord)
  -0.92586   -0.91939   -0.91625   -0.91517   -0.21245   -0.17884   -0.14370   -0.13465
  -0.12290   -0.09610   -0.08586   -0.07037   -0.06998   -0.02831   -0.02654   -0.00109
   0.13211
 kpt#   4, nband= 17, wtk=  0.12500, kpt= -0.2500  0.0000  0.0000 (reduced coord)
  -0.93159   -0.91999   -0.91606   -0.91452   -0.23292   -0.15865   -0.12952   -0.10800
  -0.08452   -0.07818   -0.06883   -0.06038   -0.04820   -0.02941   -0.01838    0.00795
   0.05568
 kpt#   5, nband= 17, wtk=  0.12500, kpt=  0.5000  0.5000  0.2500 (reduced coord)
  -0.91919   -0.91919   -0.91615   -0.91615   -0.20909   -0.20909   -0.16282   -0.16282
  -0.11290   -0.11290   -0.07697   -0.07697   -0.03418   -0.03418   -0.01809   -0.01809
   0.17959
 kpt#   6, nband= 17, wtk=  0.06250, kpt=  0.0000 -0.2500  0.0000 (reduced coord)
  -0.92894   -0.91593   -0.91593   -0.91580   -0.22484   -0.13669   -0.13008   -0.12205
  -0.11641   -0.11641   -0.10589   -0.09473   -0.09473   -0.03017   -0.03017    0.00478
   0.10329
 kpt#   7, nband= 17, wtk=  0.06250, kpt=  0.5000 -0.2500  0.5000 (reduced coord)
  -0.92178   -0.92178   -0.91658   -0.91658   -0.20588   -0.20588   -0.14214   -0.14214
  -0.09092   -0.09092   -0.08326   -0.08326   -0.03171   -0.03171   -0.02924   -0.02924
   0.17695
 kpt#   8, nband= 17, wtk=  0.12500, kpt=  0.5000  0.0000  0.2500 (reduced coord)
  -0.92525   -0.92525   -0.91605   -0.91605   -0.20156   -0.20156   -0.12033   -0.12033
  -0.07496   -0.07496   -0.06633   -0.06633   -0.04350   -0.04350   -0.02222   -0.02222
   0.13904
 Total charge density [el/Bohr^3]
      Maximum=    5.4423E-01  at reduced coord.    0.6667    0.0000    0.7333
 Next maximum=    5.4423E-01  at reduced coord.    0.7333    0.0000    0.6667
      Minimum=    1.3580E-03  at reduced coord.    0.5000    0.5000    0.5000
 Next minimum=    1.3580E-03  at reduced coord.    0.0000    0.0000    0.0000
   Integrated=    3.2000E+01

 Cartesian components of stress tensor (hartree/bohr^3)
  sigma(1 1)=  2.52726009E-04  sigma(3 2)=  0.00000000E+00
  sigma(2 2)= -5.04899873E-04  sigma(3 1)=  0.00000000E+00
  sigma(3 3)=  2.52726009E-04  sigma(2 1)=  0.00000000E+00

-Cartesian components of stress tensor (GPa)         [Pressure= -5.4149E-03 GPa]
- sigma(1 1)=  7.43545464E+00  sigma(3 2)=  0.00000000E+00
- sigma(2 2)= -1.48546646E+01  sigma(3 1)=  0.00000000E+00
- sigma(3 3)=  7.43545464E+00  sigma(2 1)=  0.00000000E+00

== END DATASET(S) ==============================================================

 -outvars: echo values of variables after computation  --------
            acell      9.8599986651E+00  6.3505942466E+00  9.8599986651E+00 Bohr
              amu      4.78800000E+01  1.59994000E+01
           diemac      1.20000000E+01
          dilatmx      1.20000000E+00
             ecut      8.00000000E+00 Hartree
           ecutsm      5.00000000E-01 Hartree
           etotal     -6.8828546811E+01
            fcart     -0.0000000000E+00 -1.0382935436E-06  2.8234431575E-22
                      -0.0000000000E+00  1.0382935436E-06  2.8234431575E-22
                       4.9104874935E-06  6.9435696204E-08  4.9104874935E-06
                      -4.9104874935E-06  6.9435696204E-08 -4.9104874935E-06
                       4.9104874935E-06 -6.9435696204E-08 -4.9104874935E-06
                      -4.9104874935E-06 -6.9435696204E-08  4.9104874935E-06
-          fftalg         112
           getwfk          -1
           ionmov           2
              kpt     -2.50000000E-01  5.00000000E-01  0.00000000E+00
                       5.00000000E-01 -2.50000000E-01  0.00000000E+00
                      -2.50000000E-01 -2.50000000E-01  2.50000000E-01
                      -2.50000000E-01  0.00000000E+00  0.00000000E+00
                       5.00000000E-01  5.00000000E-01  2.50000000E-01
                       0.00000000E+00 -2.50000000E-01  0.00000000E+00
                       5.00000000E-01 -2.50000000E-01  5.00000000E-01
                       5.00000000E-01  0.00000000E+00  2.50000000E-01
         kptrlatt        2   -2    2      0    4    0     -2   -2    2
          kptrlen      2.23644000E+01
P           mkmem           8
            natom           6
            nband          17
            ngfft          30      18      30
             nkpt           8
            nstep          10
             nsym           8
            ntime          10
           ntypat           2
              occ      2.000000  2.000000  2.000000  2.000000  2.000000  2.000000
                       2.000000  2.000000  2.000000  2.000000  2.000000  2.000000
                       2.000000  2.000000  2.000000  2.000000  0.000000
          optcell           1
           shiftk      5.00000000E-01  0.00000000E+00  5.00000000E-01
          spgroup         113
           strten      2.5272600882E-04 -5.0489987315E-04  2.5272600882E-04
                       0.0000000000E+00  0.0000000000E+00  0.0000000000E+00
           symrel      1  0  0   0  1  0   0  0  1       1  0  0   0 -1  0   0  0 -1
                      -1  0  0   0  1  0   0  0 -1      -1  0  0   0 -1  0   0  0  1
                       0  0  1   0  1  0   1  0  0       0  0  1   0 -1  0  -1  0  0
                       0  0 -1   0  1  0  -1  0  0       0  0 -1   0 -1  0   1  0  0
            tnons      0.0000000  0.0000000  0.0000000     0.5000000 -0.4999911  0.5000000
                       0.0000000  0.0000000  0.0000000     0.5000000 -0.4999911  0.5000000
                       0.0000000  0.0000000  0.0000000     0.5000000 -0.4999911  0.5000000
                       0.0000000  0.0000000  0.0000000     0.5000000 -0.4999911  0.5000000
           toldfe      1.00000000E-04 Hartree
            typat      1  1  2  2  2  2
              wtk        0.12500    0.12500    0.25000    0.12500    0.12500    0.06250
                         0.06250    0.12500
           xangst      3.2721489970E-18  2.0001800258E-05  6.1470869692E-19
                       2.6088432851E+00  1.6803049194E+00  2.6088432851E+00
                       1.5667096762E+00  1.4662568484E-05  1.5667096762E+00
                       3.6509768941E+00  1.4662568484E-05  3.6509768941E+00
                       4.1755529614E+00  1.6803102586E+00  1.0421336089E+00
                       1.0421336089E+00  1.6803102586E+00  4.1755529614E+00
            xcart      6.1834654704E-18  3.7797924652E-05  1.1616310887E-18
                       4.9299993325E+00  3.1753161174E+00  4.9299993325E+00
                       2.9606522178E+00  2.7708238839E-05  2.9606522178E+00
                       6.8993464473E+00  2.7708238839E-05  6.8993464473E+00
                       7.8906515503E+00  3.1753262071E+00  1.9693471147E+00
                       1.9693471147E+00  3.1753262071E+00  7.8906515503E+00
             xred      6.2712640036E-19  5.9518720901E-06  1.1781249959E-19
                       5.0000000000E-01  5.0000299091E-01  5.0000000000E-01
                       3.0026902826E-01  4.3630938717E-06  3.0026902826E-01
                       6.9973097174E-01  4.3630938717E-06  6.9973097174E-01
                       8.0026902826E-01  5.0000457969E-01  1.9973097174E-01
                       1.9973097174E-01  5.0000457969E-01  8.0026902826E-01
            znucl       22.00000    8.00000

 Suggested references for the acknowledgment of ABINIT usage.

 Calculation completed.
.Delivered   4 WARNINGs and   9 COMMENTs to log file.

--- !FinalSummary
program: abinit
version: 8.6.3
start_datetime: Sat Apr 21 18:35:55 2018
end_datetime: Sat Apr 21 18:36:18 2018
overall_cpu_time:          23.1
overall_wall_time:          23.6
exit_requested_by_user: no
timelimit: 0
pseudos:
    Ti  : 9d5151159dba5b2d9be995f71cdbe165
    O   : f9a33d255b992d3a483d25bc79688495
usepaw: 0
mpi_procs: 1
omp_threads: 1
num_warnings: 4
num_comments: 9
...