.Version 8.6.3 of ABINIT
.(sequential version, prepared for a x86_64_linux_gnu5.4 computer)

 ABINIT is a project of the Universite Catholique de Louvain,
 Corning Inc. and other collaborators, see ~abinit/doc/developers/contributors.txt .
 Please read ~abinit/doc/users/acknowledgments.html for suggested
 acknowledgments of the ABINIT effort.

.Starting date : Fri 27 Apr 2018.
- ( at 11h51 )

 === Build Information ===
  Version       : 8.6.3
  Build target  : x86_64_linux_gnu5.4
  Build date    : 20180412

 === Optimizations ===
  Debug level        : basic
  Optimization level : standard
  Architecture       : unknown_unknown

 === Multicore ===
  Parallel build : no
  Parallel I/O   : no
  openMP support : no
  GPU support    : no

 === Connectors / Fallbacks ===
  Connectors on : yes
  Fallbacks on  : yes
  DFT flavor    : none
  FFT flavor    : none
  LINALG flavor : netlib-fallback
  MATH flavor   : none
  TIMER flavor  : abinit
  TRIO flavor   : none

 === Experimental features ===
  Bindings            : @enable_bindings@
  Exports             : no
  GW double-precision : no

 Default optimizations:
   -O2 -mtune=native -march=native

 Optimizations for 20_datashare:
   -O0

 CPP options activated during the build:

                    CC_GNU                   CXX_GNU                    FC_GNU

 HAVE_FC_ALLOCATABLE_DT...             HAVE_FC_ASYNC         HAVE_FC_BACKTRACE

  HAVE_FC_COMMAND_ARGUMENT      HAVE_FC_COMMAND_LINE        HAVE_FC_CONTIGUOUS

           HAVE_FC_CPUTIME              HAVE_FC_EXIT             HAVE_FC_FLUSH

             HAVE_FC_GAMMA            HAVE_FC_GETENV   HAVE_FC_IEEE_EXCEPTIONS

          HAVE_FC_INT_QUAD             HAVE_FC_IOMSG     HAVE_FC_ISO_C_BINDING

  HAVE_FC_ISO_FORTRAN_2008        HAVE_FC_LONG_LINES        HAVE_FC_MOVE_ALLOC

           HAVE_FC_PRIVATE         HAVE_FC_PROTECTED         HAVE_FC_STREAM_IO

            HAVE_FC_SYSTEM          HAVE_FORTRAN2003        HAVE_LIBPAW_ABINIT

      HAVE_LIBTETRA_ABINIT             HAVE_OS_LINUX         HAVE_TIMER_ABINIT

              USE_MACROAVE

- input  file    -> RutileGeom2.in
- output file    -> RutileGeom2.out
- root for input  files -> RutileGeom2_i
- root for output files -> RutileGeom2_o

-instrng: 94 lines of input have been read from file RutileGeom2.in

 Please give name of formatted atomic psp file
 iofn2 : for atom type 1, psp file is ../../../Psps_for_tests/22ti.pspnc

 Please give name of formatted atomic psp file
 iofn2 : for atom type 2, psp file is ../../../Psps_for_tests/8o.pspnc
  read the values zionpsp=  4.0 , pspcod=   1 , lmax=   2
  read the values zionpsp=  6.0 , pspcod=   1 , lmax=   1

 inpspheads: deduce mpsang = 3, n1xccc = 2501.
 invars1 : treat image number: 1

 symlatt : the Bravais lattice is tP (primitive tetragonal)
  xcart  is defined in input file
 ingeo : takes atomic coordinates from input array xcart
 symfind : exit, nsym=8
   symrel matrices, symafm and tnons are :
   1       1   0   0     0   1   0     0   0   1       1      0.0000  0.0000  0.0000
   2       1   0   0     0  -1   0     0   0  -1       1      0.5000 -0.5000  0.5000
   3      -1   0   0     0   1   0     0   0  -1       1      0.0000  0.0000  0.0000
   4      -1   0   0     0  -1   0     0   0   1       1      0.5000 -0.5000  0.5000
   5       0   0   1     0   1   0     1   0   0       1      0.0000  0.0000  0.0000
   6       0   0   1     0  -1   0    -1   0   0       1      0.5000 -0.5000  0.5000
   7       0   0  -1     0   1   0    -1   0   0       1      0.0000  0.0000  0.0000
   8       0   0  -1     0  -1   0     1   0   0       1      0.5000 -0.5000  0.5000

 symlatt : the Bravais lattice is tP (primitive tetragonal)

 symlatt : the Bravais lattice is tP (primitive tetragonal)
 symspgr : spgroup= 113  P-4 2_1 m   (=D2d^3)
 symspgr : optical characteristics = uniaxial
 Optical axis (in reduced coordinates, real space ) :   0   1   0
 ingeo : angdeg(1:3)=   90.00000000   90.00000000   90.00000000
 invars2: take the default value of fband=  1.25000000E-01
 chkneu : initialized the occupation numbers for occopt=    1, spin-unpolarized or antiferromagnetic case :
  2.00  2.00  2.00  2.00  2.00  2.00  2.00  2.00  2.00  2.00  2.00  2.00
  2.00  2.00  2.00  2.00  0.00
mpi_setup: mkmem  undefined in the input file.Use default mkmem  = nkpt
 mpi_setup: With nkpt_me=8 and mkmem  = 8, ground state wf handled in core.
mpi_setup: mkqmem undefined in the input file.Use default mkqmem = nkpt
 mpi_setup: With nkpt_me=8 and mkqmem = 8, ground state wf handled in core.
mpi_setup: mk1mem undefined in the input file.Use default mk1mem = nkpt
 mpi_setup: With nkpt_me=8 and mk1mem = 8, ground state wf handled in core.
 For input ecut=  2.400000E+02 best grid ngfft=     125      80     125
       max ecut=  2.517292E+02

 ==== FFT mesh ====
  FFT mesh divisions ........................   125   80  125
  Augmented FFT divisions ...................   125   81  125
  FFT algorithm .............................   112
  FFT cache size ............................    16
 getmpw: optimal value of mpw= 74872

 Symmetries : space group P-4 2_1 m (#113); Bravais tP (primitive tetrag.)

 getdim_nloc : deduce lmnmax  =   8, lnmax  =   2,
                      lmnmaxso=   8, lnmaxso=   2.
     intxc =       0    ionmov =       2      iscf =       7    lmnmax =       2
     lnmax =       2     mgfft =     125  mpssoang =       3    mqgrid =    6054
     natom =       6  nloc_mem =       1    nspden =       1   nspinor =       1
    nsppol =       1      nsym =       8    n1xccc =    2501    ntypat =       2
    occopt =       1   xclevel =       2
-    mband =          17        mffmem =           1         mkmem =           8
       mpw =       74872          nfft =     1250000          nkpt =           8
  Rough estimation (10% accuracy) of disk space for files :

 The job will continue.
------------- Echo of variables that govern the present computation ------------
-
- outvars: echo of selected default values
-   iomode0 =  0 , fftalg0 =112 , wfoptalg0 =  0
-
- outvars: echo of global parameters not present in the input file
-  max_nthreads =    0
-
 -outvars: echo values of preprocessed input variables --------
            acell      8.6808000000E+00  5.5911000000E+00  8.6808000000E+00 Bohr
              amu      4.78800000E+01  1.59994000E+01
           diemac      1.20000000E+01
          dilatmx      2.00000000E+00
             ecut      6.00000000E+01 Hartree
           ecutsm      5.00000000E-01 Hartree
-          fftalg         112
           getwfk          -1
           ionmov           2
              ixc          11
              kpt     -2.50000000E-01  5.00000000E-01  0.00000000E+00
                       5.00000000E-01 -2.50000000E-01  0.00000000E+00
                      -2.50000000E-01 -2.50000000E-01  2.50000000E-01
                      -2.50000000E-01  0.00000000E+00  0.00000000E+00
                       5.00000000E-01  5.00000000E-01  2.50000000E-01
                       0.00000000E+00 -2.50000000E-01  0.00000000E+00
                       5.00000000E-01 -2.50000000E-01  5.00000000E-01
                       5.00000000E-01  0.00000000E+00  2.50000000E-01
         kptrlatt        2   -2    2      0    4    0     -2   -2    2
          kptrlen      2.23644000E+01
P           mkmem           8
            natom           6
            nband          17
            ngfft         125      80     125
             nkpt           8
            nstep          20
             nsym           8
            ntime          30
           ntypat           2
              occ      2.000000  2.000000  2.000000  2.000000  2.000000  2.000000
                       2.000000  2.000000  2.000000  2.000000  2.000000  2.000000
                       2.000000  2.000000  2.000000  2.000000  0.000000
          optcell           1
           shiftk      5.00000000E-01  0.00000000E+00  5.00000000E-01
          spgroup         113
           symrel      1  0  0   0  1  0   0  0  1       1  0  0   0 -1  0   0  0 -1
                      -1  0  0   0  1  0   0  0 -1      -1  0  0   0 -1  0   0  0  1
                       0  0  1   0  1  0   1  0  0       0  0  1   0 -1  0  -1  0  0
                       0  0 -1   0  1  0  -1  0  0       0  0 -1   0 -1  0   1  0  0
            tnons      0.0000000  0.0000000  0.0000000     0.5000000 -0.4999911  0.5000000
                       0.0000000  0.0000000  0.0000000     0.5000000 -0.4999911  0.5000000
                       0.0000000  0.0000000  0.0000000     0.5000000 -0.4999911  0.5000000
                       0.0000000  0.0000000  0.0000000     0.5000000 -0.4999911  0.5000000
           toldfe      1.00000000E-04 Hartree
            typat      1  1  2  2  2  2
              wtk        0.12500    0.12500    0.25000    0.12500    0.12500    0.06250
                         0.06250    0.12500
           xangst      0.0000000000E+00  0.0000000000E+00  0.0000000000E+00
                       2.2968407562E+00  1.4793678043E+00  2.2968407562E+00
                       3.1696656440E+00  0.0000000000E+00  1.4240158683E+00
                       1.4240158683E+00  0.0000000000E+00  3.1696656440E+00
                       8.7282488785E-01  1.4793678043E+00  8.7282488785E-01
                       3.7208566245E+00  1.4793678043E+00  3.7208566245E+00
            xcart      0.0000000000E+00  0.0000000000E+00  0.0000000000E+00
                       4.3404000000E+00  2.7956000000E+00  4.3404000000E+00
                       5.9898000000E+00  0.0000000000E+00  2.6910000000E+00
                       2.6910000000E+00  0.0000000000E+00  5.9898000000E+00
                       1.6494000000E+00  2.7956000000E+00  1.6494000000E+00
                       7.0314000000E+00  2.7956000000E+00  7.0314000000E+00
             xred      0.0000000000E+00  0.0000000000E+00  0.0000000000E+00
                       5.0000000000E-01  5.0000894278E-01  5.0000000000E-01
                       6.9000552944E-01  0.0000000000E+00  3.0999447056E-01
                       3.0999447056E-01  0.0000000000E+00  6.9000552944E-01
                       1.9000552944E-01  5.0000894278E-01  1.9000552944E-01
                       8.0999447056E-01  5.0000894278E-01  8.0999447056E-01
            znucl       22.00000    8.00000

 chkinp: Checking input parameters for consistency.

 chkinp: WARNING -
   Chksymbreak=1 . Found potentially symmetry-breaking value of tnons,
   which is neither a rational fraction in 1/8th nor in 1/12th :
   for the symmetry number    2
   symrel is   1  0  0  0 -1  0  0  0 -1
   tnons is     5.000000E-01   -4.999911E-01    5.000000E-01
   Please, read the description of the input variable chksymbreak,
   then, if you feel confident, you might switch it to zero, or consult with the forum.

[...]

 chkinp: WARNING -
   Chksymbreak=1 . Found potentially symmetry-breaking value of tnons,
   which is neither a rational fraction in 1/8th nor in 1/12th :
   for the symmetry number    6
   symrel is   0  0  1  0 -1  0 -1  0  0
   tnons is     5.000000E-01   -4.999911E-01    5.000000E-01
   Please, read the description of the input variable chksymbreak,
[...]
 ene: -4.79E-02
 vtowfk : number of one-way 3D ffts skipped in vtowfk until now =1046
     eigenvalues (hartree) for   17  bands
              after    2 non-SCF iterations with    4 CG line minimizations
 -7.3631E-01 -7.0479E-01 -7.0215E-01 -7.0215E-01 -2.7869E-01 -2.6067E-01
 -2.4160E-01 -2.4160E-01 -2.3367E-01 -2.2434E-01 -1.9349E-01 -1.7891E-01
 -1.7891E-01 -1.5844E-01 -1.5844E-01 -1.2711E-01 -4.7851E-02
 non-scf iterations; kpt #     7  , k= (  0.50000 -0.25000  0.50000  ), band residuals:
 res:  1.60E-10  2.04E-10  2.41E-10  2.18E-10  2.05E-09  2.34E-09  1.78E-09  1.78E-09
 res:  3.29E-09  5.07E-09  9.52E-09  9.52E-09  5.30E-09  5.18E-09  7.68E-09  7.68E-09
 res:  3.19E-08
 ene: -7.18E-01 -7.18E-01 -7.05E-01 -7.05E-01 -2.74E-01 -2.74E-01 -2.57E-01 -2.57E-01
 ene: -2.04E-01 -2.04E-01 -1.77E-01 -1.77E-01 -1.65E-01 -1.65E-01 -1.62E-01 -1.62E-01
 ene: -3.23E-02
 vtowfk : number of one-way 3D ffts skipped in vtowfk until now =1047
     eigenvalues (hartree) for   17  bands
              after    2 non-SCF iterations with    4 CG line minimizations
 -7.1824E-01 -7.1824E-01 -7.0515E-01 -7.0515E-01 -2.7380E-01 -2.7380E-01
 -2.5698E-01 -2.5698E-01 -2.0384E-01 -2.0384E-01 -1.7695E-01 -1.7695E-01
 -1.6490E-01 -1.6490E-01 -1.6173E-01 -1.6173E-01 -3.2301E-02
 non-scf iterations; kpt #     8  , k= (  0.50000  0.00000  0.25000  ), band residuals:
 res:  1.31E-10  1.74E-10  1.26E-10  1.41E-10  1.69E-09  1.79E-09  1.09E-09  1.09E-09
 res:  4.24E-09  4.73E-09  6.91E-09  8.35E-09  8.51E-09  8.52E-09  1.05E-08  1.37E-08
 res:  1.57E-09
 ene: -7.28E-01 -7.28E-01 -7.02E-01 -7.02E-01 -2.79E-01 -2.79E-01 -2.32E-01 -2.32E-01
 ene: -2.13E-01 -2.13E-01 -1.85E-01 -1.85E-01 -1.65E-01 -1.65E-01 -1.46E-01 -1.46E-01
 ene: -4.41E-02
 vtowfk : number of one-way 3D ffts skipped in vtowfk until now =1048
     eigenvalues (hartree) for   17  bands
              after    2 non-SCF iterations with    4 CG line minimizations
 -7.2822E-01 -7.2822E-01 -7.0235E-01 -7.0235E-01 -2.7910E-01 -2.7910E-01
 -2.3159E-01 -2.3159E-01 -2.1315E-01 -2.1315E-01 -1.8461E-01 -1.8461E-01
 -1.6462E-01 -1.6462E-01 -1.4649E-01 -1.4649E-01 -4.4146E-02
 Total charge density [el/Bohr^3]
      Maximum=    9.7369E-01  at reduced coord.    0.7600    0.4875    0.8320
      Minimum=    2.5785E-04  at reduced coord.    0.0000    0.0000    0.0000
   Integrated=    3.2000E+01
 ETOT  5  -75.188175083834     2.199E-08 3.194E-08 1.547E-02
 scprqt: <Vxc>= -3.7753429E-01 hartree

 At SCF step    5, etot is converged :
  for the second time, diff in etot=  2.199E-08 < toldfe=  1.000E-04

[...]

 fftdatar_write: About to write data to: RutileGeom2_o_TIM21_DEN with iomode IO_MODE_FORTRAN

---OUTPUT-----------------------------------------------------------------------

 Cartesian coordinates (xcart) [bohr]
 -2.69091580017669E-18 -8.70957516979075E-04  3.10676490155296E-18
  4.59047553391384E+00  2.95754163363198E+00  4.59047553391384E+00
  6.38870749254436E+00  4.17807903965413E-08  2.79224357528331E+00
  2.79224357528331E+00  4.17807903964681E-08  6.38870749254436E+00
  1.79823195863053E+00  2.95667063433421E+00  1.79823195863053E+00
  7.38271910919716E+00  2.95667063433421E+00  7.38271910919716E+00
 Reduced coordinates (xred)
 -2.93097717251356E-19 -1.47289500583394E-04  3.38392490995822E-19
  5.00000000000000E-01  5.00156232284651E-01  5.00000000000000E-01
  6.95865542180262E-01  7.06563940435441E-09  3.04134457819737E-01
  3.04134457819738E-01  7.06563940434204E-09  6.95865542180262E-01
  1.95865542180262E-01  5.00008935718428E-01  1.95865542180262E-01
  8.04134457819738E-01  5.00008935718429E-01  8.04134457819738E-01
 Cartesian forces (fcart) [Ha/bohr]; max,rms= 3.65278E-05 2.46457E-05 (free atoms)
  1.12937726300573E-21 -1.53561983863960E-07 -5.64688631502867E-22
  1.12937726300573E-21  1.53561983863956E-07 -5.64688631502867E-22
 -2.64486665896789E-05  3.65278145628780E-05  2.64486665896789E-05
  2.64486665896789E-05  3.65278145628780E-05 -2.64486665896789E-05
 -2.64486665896789E-05 -3.65278145628780E-05 -2.64486665896789E-05
  2.64486665896789E-05 -3.65278145628780E-05  2.64486665896789E-05
 Reduced forces (fred)
 -1.03687573887728E-20  9.08048188355490E-07  5.18437869438640E-21
 -1.03687573887728E-20 -9.08048188355464E-07  5.18437869438640E-21
  2.42823913769131E-04 -2.15997573121944E-04 -2.42823913769131E-04
 -2.42823913769131E-04 -2.15997573121945E-04  2.42823913769131E-04
  2.42823913769131E-04  2.15997573121944E-04  2.42823913769131E-04
 -2.42823913769131E-04  2.15997573121944E-04 -2.42823913769131E-04
 Scale of Primitive Cell (acell) [bohr]
  9.18095106782769E+00  5.91323559065194E+00  9.18095106782769E+00
 Real space primitive translations (rprimd) [bohr]
  9.18095106782769E+00  0.00000000000000E+00  0.00000000000000E+00
  0.00000000000000E+00  5.91323559065194E+00  0.00000000000000E+00
  0.00000000000000E+00  0.00000000000000E+00  9.18095106782769E+00
 Unitary Cell Volume (ucvol) [Bohr^3]=  4.98425814924382E+02
 Angles (23,13,12)= [degrees]
  9.00000000000000E+01  9.00000000000000E+01  9.00000000000000E+01
 Lengths [Bohr]
  9.18095106782769E+00  5.91323559065194E+00  9.18095106782769E+00
 Stress tensor in cartesian coordinates (strten) [Ha/bohr^3]
  3.51903702740242E-06  0.00000000000000E+00  0.00000000000000E+00
  0.00000000000000E+00 -6.86832085384018E-06  0.00000000000000E+00
  0.00000000000000E+00  0.00000000000000E+00  3.51903702740589E-06
 Total energy (etotal) [Ha]= -7.51881750838339E+01

 Difference of energy with previous step (new-old):
           Absolute (Ha)=-7.35216E-07
           Relative     =-9.77835E-09

 At Broyd/MD step  21, gradients are converged :
  max grad (force/stress) = 3.6528E-05 < tolmxf= 5.0000E-05 ha/bohr (free atoms)

 Geometry Optimization Precondition:           0

 ----iterations are completed or convergence reached----

 === Gap info ===
  >>>> For spin  1
   Minimum optical gap =   2.0465 [eV], located at k-point      :  -0.2500  0.0000  0.0000
   Fundamental gap     =   2.0001 [eV], Top of valence bands at :  -0.2500  0.0000  0.0000
                                        Bottom of conduction at :   0.5000  0.5000  0.2500
 Mean square residual over all n,k,spin=   3.8133E-09; max=  3.1936E-08
  -0.2500  0.5000  0.0000    1  1.25504E-08 kpt; spin; max resid(k); each band:
  2.61E-10 2.21E-10 4.66E-10 4.42E-10 2.84E-09 2.75E-09 2.14E-09 2.19E-09
  3.38E-09 3.33E-09 3.68E-09 3.66E-09 8.56E-09 7.86E-09 1.26E-08 2.80E-09
  1.07E-09
   0.5000 -0.2500  0.0000    1  2.03266E-08 kpt; spin; max resid(k); each band:
  8.11E-11 8.11E-11 3.59E-10 4.03E-10 2.87E-09 2.87E-09 2.81E-09 2.80E-09
  2.82E-09 2.92E-09 3.77E-09 5.23E-09 6.81E-09 7.51E-09 4.39E-09 2.03E-08
  1.13E-09
  -0.2500 -0.2500  0.2500    1  1.48865E-08 kpt; spin; max resid(k); each band:
  7.22E-11 1.93E-10 2.48E-10 4.45E-10 2.13E-09 1.97E-09 3.22E-09 1.75E-09
  3.44E-09 4.13E-09 4.55E-09 5.48E-09 3.33E-10 8.69E-09 1.49E-08 2.79E-09
  3.43E-10
  -0.2500  0.0000  0.0000    1  1.53106E-08 kpt; spin; max resid(k); each band:
  6.18E-11 2.42E-10 1.04E-10 3.26E-10 2.98E-09 9.27E-10 2.14E-09 1.03E-09
  1.60E-09 2.73E-09 4.89E-09 4.48E-09 1.53E-08 1.23E-08 1.43E-08 7.34E-09
  1.46E-09
   0.5000  0.5000  0.2500    1  1.24969E-08 kpt; spin; max resid(k); each band:
  3.17E-10 3.17E-10 3.57E-10 3.57E-10 2.76E-09 3.05E-09 2.07E-09 2.14E-09
  2.22E-09 2.41E-09 4.36E-09 4.49E-09 9.64E-09 1.25E-08 9.05E-10 6.08E-09
  8.33E-10
   0.0000 -0.2500  0.0000    1  1.05090E-08 kpt; spin; max resid(k); each band:
  4.99E-11 4.93E-10 2.86E-10 3.20E-10 2.38E-09 9.25E-10 1.81E-09 1.81E-09
  2.46E-09 3.13E-09 8.42E-09 4.61E-10 4.61E-10 1.05E-08 1.05E-08 2.32E-11
  2.48E-10
   0.5000 -0.2500  0.5000    1  3.19357E-08 kpt; spin; max resid(k); each band:
  1.60E-10 2.04E-10 2.41E-10 2.18E-10 2.05E-09 2.34E-09 1.78E-09 1.78E-09
  3.29E-09 5.07E-09 9.52E-09 9.52E-09 5.30E-09 5.18E-09 7.68E-09 7.68E-09
  3.19E-08
   0.5000  0.0000  0.2500    1  1.36786E-08 kpt; spin; max resid(k); each band:
  1.31E-10 1.74E-10 1.26E-10 1.41E-10 1.69E-09 1.79E-09 1.09E-09 1.09E-09
  4.24E-09 4.73E-09 6.91E-09 8.35E-09 8.51E-09 8.52E-09 1.05E-08 1.37E-08
  1.57E-09

 outwf: write wavefunction to file RutileGeom2_o_WFK, with iomode -1
 prteigrs : about to open file RutileGeom2_o_EIG
 Fermi (or HOMO) energy (hartree) =  -0.12159   Average Vxc (hartree)=  -0.37753
 Eigenvalues (hartree) for nkpt=   8  k points:
 kpt#   1, nband= 17, wtk=  0.12500, kpt= -0.2500  0.5000  0.0000 (reduced coord)
  -0.71135   -0.71134   -0.70480   -0.70480   -0.26013   -0.26011   -0.24824   -0.24821
  -0.22124   -0.22121   -0.20480   -0.20478   -0.17089   -0.17088   -0.16068   -0.16065
  -0.04112
 kpt#   2, nband= 17, wtk=  0.12500, kpt=  0.5000 -0.2500  0.0000 (reduced coord)
  -0.72100   -0.72100   -0.70248   -0.70248   -0.25585   -0.25585   -0.24269   -0.24269
  -0.22847   -0.22847   -0.20358   -0.20358   -0.17550   -0.17550   -0.13959   -0.13959
  -0.03836
 kpt#   3, nband= 17, wtk=  0.25000, kpt= -0.2500 -0.2500  0.2500 (reduced coord)
  -0.72841   -0.71163   -0.70366   -0.70283   -0.27372   -0.25313   -0.25278   -0.24291
  -0.22764   -0.20771   -0.20537   -0.19449   -0.17702   -0.16237   -0.15198   -0.13339
  -0.04667
 kpt#   4, nband= 17, wtk=  0.12500, kpt= -0.2500  0.0000  0.0000 (reduced coord)
  -0.74392   -0.71409   -0.70075   -0.70058   -0.28879   -0.26892   -0.24382   -0.23076
  -0.23045   -0.20895   -0.20341   -0.18084   -0.15650   -0.14941   -0.13738   -0.12159
  -0.04639
 kpt#   5, nband= 17, wtk=  0.12500, kpt=  0.5000  0.5000  0.2500 (reduced coord)
  -0.70927   -0.70927   -0.70657   -0.70657   -0.27013   -0.27013   -0.25162   -0.25162
  -0.22359   -0.22359   -0.20645   -0.20645   -0.16060   -0.16060   -0.14103   -0.14103
  -0.04809
 kpt#   6, nband= 17, wtk=  0.06250, kpt=  0.0000 -0.2500  0.0000 (reduced coord)
  -0.73631   -0.70479   -0.70215   -0.70215   -0.27869   -0.26067   -0.24160   -0.24160
  -0.23367   -0.22434   -0.19349   -0.17891   -0.17891   -0.15844   -0.15844   -0.12711
  -0.04785
 kpt#   7, nband= 17, wtk=  0.06250, kpt=  0.5000 -0.2500  0.5000 (reduced coord)
  -0.71824   -0.71824   -0.70515   -0.70515   -0.27380   -0.27380   -0.25698   -0.25698
  -0.20384   -0.20384   -0.17695   -0.17695   -0.16490   -0.16490   -0.16173   -0.16173
  -0.03230
 kpt#   8, nband= 17, wtk=  0.12500, kpt=  0.5000  0.0000  0.2500 (reduced coord)
  -0.72822   -0.72822   -0.70235   -0.70235   -0.27910   -0.27910   -0.23159   -0.23159
  -0.21315   -0.21315   -0.18461   -0.18461   -0.16462   -0.16462   -0.14649   -0.14649
  -0.04415
 Total charge density [el/Bohr^3]
      Maximum=    9.7369E-01  at reduced coord.    0.7600    0.4875    0.8320
 Next maximum=    9.7369E-01  at reduced coord.    0.8320    0.4875    0.7600
      Minimum=    2.5785E-04  at reduced coord.    0.0000    0.0000    0.0000
 Next minimum=    2.7467E-04  at reduced coord.    0.5040    0.5000    0.4960
   Integrated=    3.2000E+01

 Cartesian components of stress tensor (hartree/bohr^3)
  sigma(1 1)=  3.51903703E-06  sigma(3 2)=  0.00000000E+00
  sigma(2 2)= -6.86832085E-06  sigma(3 1)=  0.00000000E+00
  sigma(3 3)=  3.51903703E-06  sigma(2 1)=  0.00000000E+00

-Cartesian components of stress tensor (GPa)         [Pressure= -1.6648E-03 GPa]
- sigma(1 1)=  1.03533626E-01  sigma(3 2)=  0.00000000E+00
- sigma(2 2)= -2.02072942E-01  sigma(3 1)=  0.00000000E+00
- sigma(3 3)=  1.03533626E-01  sigma(2 1)=  0.00000000E+00

== END DATASET(S) ==============================================================

 -outvars: echo values of variables after computation  --------
            acell      9.1809510678E+00  5.9132355907E+00  9.1809510678E+00 Bohr
              amu      4.78800000E+01  1.59994000E+01
           diemac      1.20000000E+01
          dilatmx      2.00000000E+00
             ecut      6.00000000E+01 Hartree
           ecutsm      5.00000000E-01 Hartree
           etotal     -7.5188175084E+01
            fcart      1.1293772630E-21 -1.5356198386E-07 -5.6468863150E-22
                       1.1293772630E-21  1.5356198386E-07 -5.6468863150E-22
                      -2.6448666590E-05  3.6527814563E-05  2.6448666590E-05
                       2.6448666590E-05  3.6527814563E-05 -2.6448666590E-05
                      -2.6448666590E-05 -3.6527814563E-05 -2.6448666590E-05
                       2.6448666590E-05 -3.6527814563E-05  2.6448666590E-05
-          fftalg         112
           getwfk          -1
           ionmov           2
              ixc          11
              kpt     -2.50000000E-01  5.00000000E-01  0.00000000E+00
                       5.00000000E-01 -2.50000000E-01  0.00000000E+00
                      -2.50000000E-01 -2.50000000E-01  2.50000000E-01
                      -2.50000000E-01  0.00000000E+00  0.00000000E+00
                       5.00000000E-01  5.00000000E-01  2.50000000E-01
                       0.00000000E+00 -2.50000000E-01  0.00000000E+00
                       5.00000000E-01 -2.50000000E-01  5.00000000E-01
                       5.00000000E-01  0.00000000E+00  2.50000000E-01
         kptrlatt        2   -2    2      0    4    0     -2   -2    2
          kptrlen      2.23644000E+01
P           mkmem           8
            natom           6
            nband          17
            ngfft         125      80     125
             nkpt           8
            nstep          20
             nsym           8
            ntime          30
           ntypat           2
              occ      2.000000  2.000000  2.000000  2.000000  2.000000  2.000000
                       2.000000  2.000000  2.000000  2.000000  2.000000  2.000000
                       2.000000  2.000000  2.000000  2.000000  0.000000
          optcell           1
           shiftk      5.00000000E-01  0.00000000E+00  5.00000000E-01
          spgroup         113
           strten      3.5190370274E-06 -6.8683208538E-06  3.5190370274E-06
                       0.0000000000E+00  0.0000000000E+00  0.0000000000E+00
           symrel      1  0  0   0  1  0   0  0  1       1  0  0   0 -1  0   0  0 -1
                      -1  0  0   0  1  0   0  0 -1      -1  0  0   0 -1  0   0  0  1
                       0  0  1   0  1  0   1  0  0       0  0  1   0 -1  0  -1  0  0
                       0  0 -1   0  1  0  -1  0  0       0  0 -1   0 -1  0   1  0  0
            tnons      0.0000000  0.0000000  0.0000000     0.5000000 -0.4999911  0.5000000
                       0.0000000  0.0000000  0.0000000     0.5000000 -0.4999911  0.5000000
                       0.0000000  0.0000000  0.0000000     0.5000000 -0.4999911  0.5000000
                       0.0000000  0.0000000  0.0000000     0.5000000 -0.4999911  0.5000000
           toldfe      1.00000000E-04 Hartree
            typat      1  1  2  2  2  2
              wtk        0.12500    0.12500    0.25000    0.12500    0.12500    0.06250
                         0.06250    0.12500
           xangst     -1.4239713117E-18 -4.6089086764E-04  1.6440291783E-18
                       2.4291750291E+00  1.5650636260E+00  2.4291750291E+00
                       3.3807583974E+00  2.2109442035E-08  1.4775916609E+00
                       1.4775916609E+00  2.2109442035E-08  3.3807583974E+00
                       9.5158336827E-01  1.5646027130E+00  9.5158336827E-01
                       3.9067666900E+00  1.5646027130E+00  3.9067666900E+00
            xcart     -2.6909158002E-18 -8.7095751698E-04  3.1067649016E-18
                       4.5904755339E+00  2.9575416336E+00  4.5904755339E+00
                       6.3887074925E+00  4.1780790397E-08  2.7922435753E+00
                       2.7922435753E+00  4.1780790396E-08  6.3887074925E+00
                       1.7982319586E+00  2.9566706343E+00  1.7982319586E+00
                       7.3827191092E+00  2.9566706343E+00  7.3827191092E+00
             xred     -2.9309771725E-19 -1.4728950058E-04  3.3839249100E-19
                       5.0000000000E-01  5.0015623228E-01  5.0000000000E-01
                       6.9586554218E-01  7.0656394044E-09  3.0413445782E-01
                       3.0413445782E-01  7.0656394043E-09  6.9586554218E-01
                       1.9586554218E-01  5.0000893572E-01  1.9586554218E-01
                       8.0413445782E-01  5.0000893572E-01  8.0413445782E-01
            znucl       22.00000    8.00000

 Suggested references for the acknowledgment of ABINIT usage.

 Calculation completed.
.Delivered   6 WARNINGs and  21 COMMENTs to log file.

--- !FinalSummary
program: abinit
version: 8.6.3
start_datetime: Fri Apr 27 11:51:34 2018
end_datetime: Fri Apr 27 13:43:02 2018
overall_cpu_time:        6670.6
overall_wall_time:        6688.4
exit_requested_by_user: no
timelimit: 0
pseudos:
    Ti  : 9d5151159dba5b2d9be995f71cdbe165
    O   : f9a33d255b992d3a483d25bc79688495
usepaw: 0
mpi_procs: 1
omp_threads: 1
num_warnings: 6
num_comments: 21
...