.Version 8.6.3 of ABINIT
.(sequential version, prepared for a x86_64_linux_gnu5.4 computer)

 ABINIT is a project of the Universite Catholique de Louvain,
 Corning Inc. and other collaborators, see ~abinit/doc/developers/contributors.txt .
 Please read ~abinit/doc/users/acknowledgments.html for suggested
 acknowledgments of the ABINIT effort.

.Starting date : Fri 27 Apr 2018.
- ( at 11h51 )

- input  file    -> RutileGeom2.in
- output file    -> RutileGeom2.out
- root for input  files -> RutileGeom2_i
- root for output files -> RutileGeom2_o

 Symmetries : space group P-4 2_1 m (#113); Bravais tP (primitive tetrag.)
     intxc =       0    ionmov =       2      iscf =       7    lmnmax =       2
     lnmax =       2     mgfft =     125  mpssoang =       3    mqgrid =    6054
     natom =       6  nloc_mem =       1    nspden =       1   nspinor =       1
    nsppol =       1      nsym =       8    n1xccc =    2501    ntypat =       2
    occopt =       1   xclevel =       2
-    mband =          17        mffmem =           1         mkmem =           8
       mpw =       74872          nfft =     1250000          nkpt =           8
  Rough estimation (10% accuracy) of disk space for files :

------------- Echo of variables that govern the present computation ------------
-
- outvars: echo of selected default values
-   iomode0 =  0 , fftalg0 =112 , wfoptalg0 =  0
-
- outvars: echo of global parameters not present in the input file
-  max_nthreads =    0
-
 -outvars: echo values of preprocessed input variables --------
            acell      8.6808000000E+00  5.5911000000E+00  8.6808000000E+00 Bohr
              amu      4.78800000E+01  1.59994000E+01
           diemac      1.20000000E+01
          dilatmx      2.00000000E+00
             ecut      6.00000000E+01 Hartree
           ecutsm      5.00000000E-01 Hartree
-          fftalg         112
           getwfk          -1
           ionmov           2
              ixc          11
              kpt     -2.50000000E-01  5.00000000E-01  0.00000000E+00
                       5.00000000E-01 -2.50000000E-01  0.00000000E+00
                      -2.50000000E-01 -2.50000000E-01  2.50000000E-01
                      -2.50000000E-01  0.00000000E+00  0.00000000E+00
                       5.00000000E-01  5.00000000E-01  2.50000000E-01
                       0.00000000E+00 -2.50000000E-01  0.00000000E+00
                       5.00000000E-01 -2.50000000E-01  5.00000000E-01
                       5.00000000E-01  0.00000000E+00  2.50000000E-01
         kptrlatt        2   -2    2      0    4    0     -2   -2    2
          kptrlen      2.23644000E+01
P           mkmem           8
            natom           6
            nband          17
            ngfft         125      80     125
             nkpt           8
            nstep          20
             nsym           8
            ntime          30
           ntypat           2
              occ      2.000000  2.000000  2.000000  2.000000  2.000000  2.000000
                       2.000000  2.000000  2.000000  2.000000  2.000000  2.000000
                       2.000000  2.000000  2.000000  2.000000  0.000000
          optcell           1
           shiftk      5.00000000E-01  0.00000000E+00  5.00000000E-01
          spgroup         113
           symrel      1  0  0   0  1  0   0  0  1       1  0  0   0 -1  0   0  0 -1
                      -1  0  0   0  1  0   0  0 -1      -1  0  0   0 -1  0   0  0  1
                       0  0  1   0  1  0   1  0  0       0  0  1   0 -1  0  -1  0  0
                       0  0 -1   0  1  0  -1  0  0       0  0 -1   0 -1  0   1  0  0
            tnons      0.0000000  0.0000000  0.0000000     0.5000000 -0.4999911  0.5000000
                       0.0000000  0.0000000  0.0000000     0.5000000 -0.4999911  0.5000000
                       0.0000000  0.0000000  0.0000000     0.5000000 -0.4999911  0.5000000
                       0.0000000  0.0000000  0.0000000     0.5000000 -0.4999911  0.5000000
           toldfe      1.00000000E-04 Hartree
            typat      1  1  2  2  2  2
              wtk        0.12500    0.12500    0.25000    0.12500    0.12500    0.06250
                         0.06250    0.12500
           xangst      0.0000000000E+00  0.0000000000E+00  0.0000000000E+00
                       2.2968407562E+00  1.4793678043E+00  2.2968407562E+00
                       3.1696656440E+00  0.0000000000E+00  1.4240158683E+00
                       1.4240158683E+00  0.0000000000E+00  3.1696656440E+00
                       8.7282488785E-01  1.4793678043E+00  8.7282488785E-01
                       3.7208566245E+00  1.4793678043E+00  3.7208566245E+00
            xcart      0.0000000000E+00  0.0000000000E+00  0.0000000000E+00
                       4.3404000000E+00  2.7956000000E+00  4.3404000000E+00
                       5.9898000000E+00  0.0000000000E+00  2.6910000000E+00
                       2.6910000000E+00  0.0000000000E+00  5.9898000000E+00
                       1.6494000000E+00  2.7956000000E+00  1.6494000000E+00
                       7.0314000000E+00  2.7956000000E+00  7.0314000000E+00
             xred      0.0000000000E+00  0.0000000000E+00  0.0000000000E+00
                       5.0000000000E-01  5.0000894278E-01  5.0000000000E-01
                       6.9000552944E-01  0.0000000000E+00  3.0999447056E-01
                       3.0999447056E-01  0.0000000000E+00  6.9000552944E-01
                       1.9000552944E-01  5.0000894278E-01  1.9000552944E-01
                       8.0999447056E-01  5.0000894278E-01  8.0999447056E-01
            znucl       22.00000    8.00000

 chkinp: Checking input parameters for consistency.

 chkinp: WARNING -
   Chksymbreak=1 . Found potentially symmetry-breaking value of tnons,
   which is neither a rational fraction in 1/8th nor in 1/12th :
   for the symmetry number    2
   symrel is   1  0  0  0 -1  0  0  0 -1
   tnons is     5.000000E-01   -4.999911E-01    5.000000E-01
   Please, read the description of the input variable chksymbreak,
   then, if you feel confident, you might switch it to zero, or consult with the forum.

[...]

 chkinp: WARNING -
   Chksymbreak=1 . Found potentially symmetry-breaking value of tnons,
   which is neither a rational fraction in 1/8th nor in 1/12th :
   for the symmetry number    8
   symrel is   0  0 -1  0 -1  0  1  0  0
   tnons is     5.000000E-01   -4.999911E-01    5.000000E-01
   Please, read the description of the input variable chksymbreak,
   then, if you feel confident, you might switch it to zero, or consult with the forum.

== DATASET  1 ==================================================================
-   nproc =    1

 Real(R)+Recip(G) space primitive vectors, cartesian coordinates (Bohr,Bohr^-1):
 R(1)=  8.6808000  0.0000000  0.0000000  G(1)=  0.1151968  0.0000000  0.0000000
 R(2)=  0.0000000  5.5911000  0.0000000  G(2)=  0.0000000  0.1788557  0.0000000
 R(3)=  0.0000000  0.0000000  8.6808000  G(3)=  0.0000000  0.0000000  0.1151968
 Unit cell volume ucvol=  4.2132455E+02 bohr^3
 Angles (23,13,12)=  9.00000000E+01  9.00000000E+01  9.00000000E+01 degrees

 getcut: wavevector=  0.0000  0.0000  0.0000  ngfft= 125  80 125
         ecut(hartree)=    240.000   => boxcut(ratio)=   2.04829

--- Pseudopotential description ------------------------------------------------
- pspini: atom type   1  psp file is ../../../Psps_for_tests/22ti.pspnc
- pspatm: opening atomic psp file    ../../../Psps_for_tests/22ti.pspnc
-  Troullier-Martins psp for element  Ti        Thu Oct 27 17:33:40 EDT 1994
- 22.00000   4.00000    940714                znucl, zion, pspdat
    1    1    2    0      2001   0.00000      pspcod,pspxc,lmax,lloc,mmax,r2well
    0   5.166   8.509    0   2.4203472        l,e99.0,e99.9,nproj,rcpsp
   0.00000000   0.00000000   0.00000000   0.00000000     rms, ekb1, ekb2, epsatm
    1   2.285   3.944    1   2.9934301        l,e99.0,e99.9,nproj,rcpsp
   0.00000000   0.00000000   0.00000000   0.00000000     rms, ekb1, ekb2, epsatm
    2  20.947  27.069    1   1.9326638        l,e99.0,e99.9,nproj,rcpsp
   0.00000000   0.00000000   0.00000000   0.00000000     rms, ekb1, ekb2, epsatm
    2.82741504495369    0.09256629068341    1.82586447305099   rchrg,fchrg,qchrg
  pspatm : epsatm=   66.67453488
         --- l  ekb(1:nproj) -->
             1    0.915537
             2   -8.015692
 pspatm: atomic psp has been read  and splines computed

- pspini: atom type   2  psp file is ../../../Psps_for_tests/8o.pspnc
- pspatm: opening atomic psp file    ../../../Psps_for_tests/8o.pspnc
-  Troullier-Martins psp for element  O         Thu Oct 27 17:29:57 EDT 1994
-  8.00000   6.00000    940714                znucl, zion, pspdat
    1    1    1    1      2001   0.00000      pspcod,pspxc,lmax,lloc,mmax,r2well
    0   5.480  16.893    1   1.4482335        l,e99.0,e99.9,nproj,rcpsp
   0.00000000   0.00000000   0.00000000   0.00000000     rms, ekb1, ekb2, epsatm
    1  20.911  28.075    0   1.4482335        l,e99.0,e99.9,nproj,rcpsp
   0.00000000   0.00000000   0.00000000   0.00000000     rms, ekb1, ekb2, epsatm
    0.56990156784787    3.95561236318184    0.63894027514378   rchrg,fchrg,qchrg
  pspatm : epsatm=    1.57752239
         --- l  ekb(1:nproj) -->
             0    5.670783
 pspatm: atomic psp has been read  and splines computed

   4.46909310E+03                                ecore*ucvol(ha*bohr**3)

_setup2: Arith. and geom. avg. npw (full set) are   74824.813   74824.802

=== [ionmov= 2] Broyden-Fletcher-Goldfard-Shanno method (forces)

--- Iteration: ( 1/30) Internal Cycle: (1/1)

---SELF-CONSISTENT-FIELD CONVERGENCE--------------------------------------------

     iter   Etot(hartree)      deltaE(h)  residm     vres2
 ETOT  1  -74.397105257388    -7.440E+01 2.363E-01 1.558E+04
 ETOT  2  -74.752720343023    -3.556E-01 1.078E-02 1.726E+04
 ETOT  3  -75.079559177126    -3.268E-01 5.045E-03 1.094E+03
 ETOT  4  -75.122866968171    -4.331E-02 3.504E-03 3.127E+01
 ETOT  5  -75.123947869755    -1.081E-03 1.880E-03 2.667E+00
 ETOT  6  -75.124113145835    -1.653E-04 9.938E-04 7.311E-01
 ETOT  7  -75.124166747272    -5.360E-05 1.287E-03 1.549E-01
 ETOT  8  -75.124182713835    -1.597E-05 6.730E-04 1.520E-02

 At SCF step    8, etot is converged :
  for the second time, diff in etot=  1.597E-05 < toldfe=  1.000E-04

 Cartesian components of stress tensor (hartree/bohr^3)
  sigma(1 1)= -1.53278181E-03  sigma(3 2)=  0.00000000E+00
  sigma(2 2)= -2.24756272E-03  sigma(3 1)=  0.00000000E+00
  sigma(3 3)= -1.53278181E-03  sigma(2 1)=  0.00000000E+00

 Integrated electronic density in atomic spheres:
 Atom  Sphere_radius  Integrated_density
    1        2.00000          1.70726020
    2        2.00000          1.70779660
    3        2.00000          6.21332153
    4        2.00000          6.21332153
    5        2.00000          6.21300970
    6        2.00000          6.21300970

---OUTPUT-----------------------------------------------------------------------

 Cartesian coordinates (xcart) [bohr]
  0.00000000000000E+00  0.00000000000000E+00  0.00000000000000E+00
  4.34040000000000E+00  2.79560000000000E+00  4.34040000000000E+00
[...]
           Absolute (Ha)= 1.96471E-05
           Relative     = 2.61306E-07

[...]

--- Iteration: (21/30) Internal Cycle: (1/1)

---SELF-CONSISTENT-FIELD CONVERGENCE--------------------------------------------

     iter   Etot(hartree)      deltaE(h)  residm     vres2
 ETOT  1  -75.188160572583    -7.519E+01 1.959E-07 6.122E-01
 ETOT  2  -75.188059596922     1.010E-04 1.315E-07 4.569E+00
 ETOT  3  -75.188173665957    -1.141E-04 7.906E-07 1.781E-02
 ETOT  4  -75.188175105823    -1.440E-06 9.955E-08 5.085E-03
 ETOT  5  -75.188175083834     2.199E-08 3.194E-08 1.547E-02

 At SCF step    5, etot is converged :
  for the second time, diff in etot=  2.199E-08 < toldfe=  1.000E-04

[...]

 Integrated electronic density in atomic spheres:
 Atom  Sphere_radius  Integrated_density
    1        2.00000          1.52944948
    2        2.00000          1.52743730
    3        2.00000          6.08730860
    4        2.00000          6.08730860
    5        2.00000          6.08542773
    6        2.00000          6.08542773

---OUTPUT-----------------------------------------------------------------------

 Cartesian coordinates (xcart) [bohr]
 -2.69091580017669E-18 -8.70957516979075E-04  3.10676490155296E-18
  4.59047553391384E+00  2.95754163363198E+00  4.59047553391384E+00
  6.38870749254436E+00  4.17807903965413E-08  2.79224357528331E+00
  2.79224357528331E+00  4.17807903964681E-08  6.38870749254436E+00
  1.79823195863053E+00  2.95667063433421E+00  1.79823195863053E+00
  7.38271910919716E+00  2.95667063433421E+00  7.38271910919716E+00
 Reduced coordinates (xred)
 -2.93097717251356E-19 -1.47289500583394E-04  3.38392490995822E-19
  5.00000000000000E-01  5.00156232284651E-01  5.00000000000000E-01
  6.95865542180262E-01  7.06563940435441E-09  3.04134457819737E-01
  3.04134457819738E-01  7.06563940434204E-09  6.95865542180262E-01
  1.95865542180262E-01  5.00008935718428E-01  1.95865542180262E-01
  8.04134457819738E-01  5.00008935718429E-01  8.04134457819738E-01
 Cartesian forces (fcart) [Ha/bohr]; max,rms= 3.65278E-05 2.46457E-05 (free atoms)
  1.12937726300573E-21 -1.53561983863960E-07 -5.64688631502867E-22
  1.12937726300573E-21  1.53561983863956E-07 -5.64688631502867E-22
 -2.64486665896789E-05  3.65278145628780E-05  2.64486665896789E-05
  2.64486665896789E-05  3.65278145628780E-05 -2.64486665896789E-05
 -2.64486665896789E-05 -3.65278145628780E-05 -2.64486665896789E-05
  2.64486665896789E-05 -3.65278145628780E-05  2.64486665896789E-05
 Reduced forces (fred)
 -1.03687573887728E-20  9.08048188355490E-07  5.18437869438640E-21
 -1.03687573887728E-20 -9.08048188355464E-07  5.18437869438640E-21
  2.42823913769131E-04 -2.15997573121944E-04 -2.42823913769131E-04
 -2.42823913769131E-04 -2.15997573121945E-04  2.42823913769131E-04
  2.42823913769131E-04  2.15997573121944E-04  2.42823913769131E-04
 -2.42823913769131E-04  2.15997573121944E-04 -2.42823913769131E-04
 Scale of Primitive Cell (acell) [bohr]
  9.18095106782769E+00  5.91323559065194E+00  9.18095106782769E+00
 Real space primitive translations (rprimd) [bohr]
  9.18095106782769E+00  0.00000000000000E+00  0.00000000000000E+00
  0.00000000000000E+00  5.91323559065194E+00  0.00000000000000E+00
  0.00000000000000E+00  0.00000000000000E+00  9.18095106782769E+00
 Unitary Cell Volume (ucvol) [Bohr^3]=  4.98425814924382E+02
 Angles (23,13,12)= [degrees]
  9.00000000000000E+01  9.00000000000000E+01  9.00000000000000E+01
 Lengths [Bohr]
  9.18095106782769E+00  5.91323559065194E+00  9.18095106782769E+00
 Stress tensor in cartesian coordinates (strten) [Ha/bohr^3]
  3.51903702740242E-06  0.00000000000000E+00  0.00000000000000E+00
  0.00000000000000E+00 -6.86832085384018E-06  0.00000000000000E+00
  0.00000000000000E+00  0.00000000000000E+00  3.51903702740589E-06
 Total energy (etotal) [Ha]= -7.51881750838339E+01

 Difference of energy with previous step (new-old):
           Absolute (Ha)=-7.35216E-07
           Relative     =-9.77835E-09

 At Broyd/MD step  21, gradients are converged :
  max grad (force/stress) = 3.6528E-05 < tolmxf= 5.0000E-05 ha/bohr (free atoms)

 ----iterations are completed or convergence reached----

 Mean square residual over all n,k,spin=   3.8133E-09; max=  3.1936E-08
 reduced coordinates (array xred) for    6 atoms
      -0.000000000000     -0.000147289501      0.000000000000
       0.500000000000      0.500156232285      0.500000000000
       0.695865542180      0.000000007066      0.304134457820
       0.304134457820      0.000000007066      0.695865542180
       0.195865542180      0.500008935718      0.195865542180
       0.804134457820      0.500008935718      0.804134457820
 rms dE/dt=  1.9124E-04; max dE/dt=  2.4282E-04; dE/dt below (all hartree)
    1       0.000000000000      0.000000908048      0.000000000000
    2       0.000000000000     -0.000000908048      0.000000000000
    3       0.000242823914     -0.000215997573     -0.000242823914
    4      -0.000242823914     -0.000215997573      0.000242823914
    5       0.000242823914      0.000215997573      0.000242823914
    6      -0.000242823914      0.000215997573     -0.000242823914

 cartesian coordinates (angstrom) at end:
    1     -0.00000000000000    -0.00046089086764     0.00000000000000
    2      2.42917502913722     1.56506362597408     2.42917502913722
    3      3.38075839740264     0.00000002210944     1.47759166087178
    4      1.47759166087179     0.00000002210944     3.38075839740264
    5      0.95158336826543     1.56460271299700     0.95158336826543
    6      3.90676669000901     1.56460271299700     3.90676669000901

 cartesian forces (hartree/bohr) at end:
    1      0.00000000000000    -0.00000015356198    -0.00000000000000
    2      0.00000000000000     0.00000015356198    -0.00000000000000
    3     -0.00002644866659     0.00003652781456     0.00002644866659
    4      0.00002644866659     0.00003652781456    -0.00002644866659
    5     -0.00002644866659    -0.00003652781456    -0.00002644866659
    6      0.00002644866659    -0.00003652781456     0.00002644866659
 frms,max,avg= 2.4645743E-05 3.6527815E-05   0.000E+00  0.000E+00  0.000E+00 h/b

 cartesian forces (eV/Angstrom) at end:
    1      0.00000000000000    -0.00000789647404    -0.00000000000000
    2      0.00000000000000     0.00000789647404    -0.00000000000000
    3     -0.00136004500472     0.00187833558873     0.00136004500472
    4      0.00136004500472     0.00187833558873    -0.00136004500472
    5     -0.00136004500472    -0.00187833558873    -0.00136004500472
    6      0.00136004500472    -0.00187833558873     0.00136004500472
 frms,max,avg= 1.2673350E-03 1.8783356E-03   0.000E+00  0.000E+00  0.000E+00 e/A
 length scales=  9.180951067828  5.913235590652  9.180951067828 bohr
              =  4.858350058274  3.129149503596  4.858350058274 angstroms
 prteigrs : about to open file RutileGeom2_o_EIG
 Fermi (or HOMO) energy (hartree) =  -0.12159   Average Vxc (hartree)=  -0.37753
 Eigenvalues (hartree) for nkpt=   8  k points:
 kpt#   1, nband= 17, wtk=  0.12500, kpt= -0.2500  0.5000  0.0000 (reduced coord)
  -0.71135   -0.71134   -0.70480   -0.70480   -0.26013   -0.26011   -0.24824   -0.24821
  -0.22124   -0.22121   -0.20480   -0.20478   -0.17089   -0.17088   -0.16068   -0.16065
  -0.04112
 prteigrs : prtvol=0 or 1, do not print more k-points.

 Components of total free energy (in Hartree) :

    Kinetic energy  =  5.52905317706827E+01
    Hartree energy  =  1.96563454383667E+01
    XC energy       = -2.10697505745509E+01
    Ewald energy    = -5.48856111230754E+01
    PspCore energy  =  8.96641579323133E+00
    Loc. psp. energy= -7.92776705720948E+01
    NL   psp  energy= -3.86843581639345E+00
    >>>>>>>>> Etotal= -7.51881750838339E+01

 Other information on the energy :
    Total energy(eV)= -2.04597429393909E+03 ; Band energy (Ha)=  -1.0650411925E+01
 rms coord change=  3.9070E-03   atom, delta coord (reduced):
     1       -0.000000000000     -0.000147289501      0.000000000000
     2        0.000000000000      0.000147289501      0.000000000000
     3        0.005860012736      0.000000007066     -0.005860012736
     4       -0.005860012736      0.000000007066      0.005860012736
     5        0.005860012736     -0.000000007066      0.005860012736
     6       -0.005860012736     -0.000000007066     -0.005860012736

 Cartesian components of stress tensor (hartree/bohr^3)
  sigma(1 1)=  3.51903703E-06  sigma(3 2)=  0.00000000E+00
  sigma(2 2)= -6.86832085E-06  sigma(3 1)=  0.00000000E+00
  sigma(3 3)=  3.51903703E-06  sigma(2 1)=  0.00000000E+00

-Cartesian components of stress tensor (GPa)         [Pressure= -1.6648E-03 GPa]
- sigma(1 1)=  1.03533626E-01  sigma(3 2)=  0.00000000E+00
- sigma(2 2)= -2.02072942E-01  sigma(3 1)=  0.00000000E+00
- sigma(3 3)=  1.03533626E-01  sigma(2 1)=  0.00000000E+00

== END DATASET(S) ==============================================================

 -outvars: echo values of variables after computation  --------
            acell      9.1809510678E+00  5.9132355907E+00  9.1809510678E+00 Bohr
              amu      4.78800000E+01  1.59994000E+01
           diemac      1.20000000E+01
          dilatmx      2.00000000E+00
             ecut      6.00000000E+01 Hartree
           ecutsm      5.00000000E-01 Hartree
           etotal     -7.5188175084E+01
            fcart      1.1293772630E-21 -1.5356198386E-07 -5.6468863150E-22
                       1.1293772630E-21  1.5356198386E-07 -5.6468863150E-22
                      -2.6448666590E-05  3.6527814563E-05  2.6448666590E-05
                       2.6448666590E-05  3.6527814563E-05 -2.6448666590E-05
                      -2.6448666590E-05 -3.6527814563E-05 -2.6448666590E-05
                       2.6448666590E-05 -3.6527814563E-05  2.6448666590E-05
-          fftalg         112
           getwfk          -1
           ionmov           2
              ixc          11
              kpt     -2.50000000E-01  5.00000000E-01  0.00000000E+00
                       5.00000000E-01 -2.50000000E-01  0.00000000E+00
                      -2.50000000E-01 -2.50000000E-01  2.50000000E-01
                      -2.50000000E-01  0.00000000E+00  0.00000000E+00
                       5.00000000E-01  5.00000000E-01  2.50000000E-01
                       0.00000000E+00 -2.50000000E-01  0.00000000E+00
                       5.00000000E-01 -2.50000000E-01  5.00000000E-01
                       5.00000000E-01  0.00000000E+00  2.50000000E-01
         kptrlatt        2   -2    2      0    4    0     -2   -2    2
          kptrlen      2.23644000E+01
P           mkmem           8
            natom           6
            nband          17
            ngfft         125      80     125
             nkpt           8
            nstep          20
             nsym           8
            ntime          30
           ntypat           2
              occ      2.000000  2.000000  2.000000  2.000000  2.000000  2.000000
                       2.000000  2.000000  2.000000  2.000000  2.000000  2.000000
                       2.000000  2.000000  2.000000  2.000000  0.000000
          optcell           1
           shiftk      5.00000000E-01  0.00000000E+00  5.00000000E-01
          spgroup         113
           strten      3.5190370274E-06 -6.8683208538E-06  3.5190370274E-06
                       0.0000000000E+00  0.0000000000E+00  0.0000000000E+00
           symrel      1  0  0   0  1  0   0  0  1       1  0  0   0 -1  0   0  0 -1
                      -1  0  0   0  1  0   0  0 -1      -1  0  0   0 -1  0   0  0  1
                       0  0  1   0  1  0   1  0  0       0  0  1   0 -1  0  -1  0  0
                       0  0 -1   0  1  0  -1  0  0       0  0 -1   0 -1  0   1  0  0
            tnons      0.0000000  0.0000000  0.0000000     0.5000000 -0.4999911  0.5000000
                       0.0000000  0.0000000  0.0000000     0.5000000 -0.4999911  0.5000000
                       0.0000000  0.0000000  0.0000000     0.5000000 -0.4999911  0.5000000
                       0.0000000  0.0000000  0.0000000     0.5000000 -0.4999911  0.5000000
           toldfe      1.00000000E-04 Hartree
            typat      1  1  2  2  2  2
              wtk        0.12500    0.12500    0.25000    0.12500    0.12500    0.06250
                         0.06250    0.12500
           xangst     -1.4239713117E-18 -4.6089086764E-04  1.6440291783E-18
                       2.4291750291E+00  1.5650636260E+00  2.4291750291E+00
                       3.3807583974E+00  2.2109442035E-08  1.4775916609E+00
                       1.4775916609E+00  2.2109442035E-08  3.3807583974E+00
                       9.5158336827E-01  1.5646027130E+00  9.5158336827E-01
                       3.9067666900E+00  1.5646027130E+00  3.9067666900E+00
            xcart     -2.6909158002E-18 -8.7095751698E-04  3.1067649016E-18
                       4.5904755339E+00  2.9575416336E+00  4.5904755339E+00
                       6.3887074925E+00  4.1780790397E-08  2.7922435753E+00
                       2.7922435753E+00  4.1780790396E-08  6.3887074925E+00
                       1.7982319586E+00  2.9566706343E+00  1.7982319586E+00
                       7.3827191092E+00  2.9566706343E+00  7.3827191092E+00
             xred     -2.9309771725E-19 -1.4728950058E-04  3.3839249100E-19
                       5.0000000000E-01  5.0015623228E-01  5.0000000000E-01
                       6.9586554218E-01  7.0656394044E-09  3.0413445782E-01
                       3.0413445782E-01  7.0656394043E-09  6.9586554218E-01
                       1.9586554218E-01  5.0000893572E-01  1.9586554218E-01
                       8.0413445782E-01  5.0000893572E-01  8.0413445782E-01
            znucl       22.00000    8.00000

-
-  as well as % of the time and number of calls for node 0-
-<BEGIN_TIMER mpi_nprocs = 1, omp_nthreads = 1, mpi_rank = 0>
- cpu_time =         6670.6, wall_time =         6688.4
-
-                                                                  (-1=no count)
- fourwf%(pot)                3572.969  53.6   3580.468  53.5         117543      -1.00        1.00       1.00
- projbd                      1001.906  15.0   1005.968  15.0         188030      -1.00        1.00       1.00
- nonlop(apply)                745.781  11.2    746.950  11.2         117543      -1.00        1.00       1.00
- fourwf%(den)                 297.016   4.5    297.919   4.5          16768      -1.00        1.00       1.00
- vtowfk(ssdiag)               203.109   3.0    204.054   3.1             -1      -1.00        1.00       1.00
- xc:pot/=fourdp                66.969   1.0     67.775   1.0            152      -1.00        0.99       0.99
- fourdp                        62.531   0.9     62.566   0.9           1892      -1.00        1.00       1.00
- getghc-other                  44.562   0.7     44.765   0.7             -1      -1.00        1.00       1.00
- nonlop(forstr)                39.906   0.6     39.820   0.6           2688      -1.00        1.00       1.00
- others (104)                  52.375   0.8     52.239   0.8             -1      -1.00        1.00       1.00
-<END_TIMER>
-
- subtotal                    6087.125  91.3   6102.524  91.2                                  1.00       1.00

- as well as % of the total time and number of calls

-<BEGIN_TIMER mpi_nprocs = 1, omp_nthreads = 1, mpi_rank = world>
- cpu_time =        6670.6, wall_time =        6688.4
-
-                                                                  (-1=no count)
- fourwf%(pot)                3572.969  53.6   3580.468  53.5         117543      -1.00        1.00       1.00
- projbd                      1001.906  15.0   1005.968  15.0         188030      -1.00        1.00       1.00
- nonlop(apply)                745.781  11.2    746.950  11.2         117543      -1.00        1.00       1.00
- fourwf%(den)                 297.016   4.5    297.919   4.5          16768      -1.00        1.00       1.00
- vtowfk(ssdiag)               203.109   3.0    204.054   3.1             -1      -1.00        1.00       1.00
- xc:pot/=fourdp                66.969   1.0     67.775   1.0            152      -1.00        0.99       0.99
- fourdp                        62.531   0.9     62.566   0.9           1892      -1.00        1.00       1.00
- getghc-other                  44.562   0.7     44.765   0.7             -1      -1.00        1.00       1.00
- nonlop(forstr)                39.906   0.6     39.820   0.6           2688      -1.00        1.00       1.00
- others (104)                  52.375   0.8     52.239   0.8             -1      -1.00        1.00       1.00
-<END_TIMER>

- subtotal                    6087.125  91.3   6102.524  91.2                                  1.00       1.00

 Suggested references for the acknowledgment of ABINIT usage.

 Calculation completed.
.Delivered   6 WARNINGs and  21 COMMENTs to log file.