.Version 8.6.3 of ABINIT
.(sequential version, prepared for a x86_64_linux_gnu5.4 computer)

 ABINIT is a project of the Universite Catholique de Louvain,
 Corning Inc. and other collaborators, see ~abinit/doc/developers/contributors.txt .
 Please read ~abinit/doc/users/acknowledgments.html for suggested
 acknowledgments of the ABINIT effort.

.Starting date : Sat 21 Apr 2018.
- ( at 18h35 )

- input  file    -> RutileGeom2.in
- output file    -> RutileGeom2.out
- root for input  files -> RutileGeom2_i
- root for output files -> RutileGeom2_o

 Symmetries : space group P-4 2_1 m (#113); Bravais tP (primitive tetrag.)
     intxc =       0    ionmov =       2      iscf =       7    lmnmax =       2
     lnmax =       2     mgfft =      30  mpssoang =       3    mqgrid =    3001
     natom =       6  nloc_mem =       1    nspden =       1   nspinor =       1
    nsppol =       1      nsym =       8    n1xccc =    2501    ntypat =       2
    occopt =       1   xclevel =       1
-    mband =          17        mffmem =           1         mkmem =           8
       mpw =         794          nfft =       16200          nkpt =           8
  Rough estimation (10% accuracy) of disk space for files :

------------- Echo of variables that govern the present computation ------------
-
- outvars: echo of selected default values
-   iomode0 =  0 , fftalg0 =112 , wfoptalg0 =  0
-
- outvars: echo of global parameters not present in the input file
-  max_nthreads =    0
-
 -outvars: echo values of preprocessed input variables --------
            acell      8.6808000000E+00  5.5911000000E+00  8.6808000000E+00 Bohr
              amu      4.78800000E+01  1.59994000E+01
           diemac      1.20000000E+01
          dilatmx      1.20000000E+00
             ecut      8.00000000E+00 Hartree
           ecutsm      5.00000000E-01 Hartree
-          fftalg         112
           getwfk          -1
           ionmov           2
              kpt     -2.50000000E-01  5.00000000E-01  0.00000000E+00
                       5.00000000E-01 -2.50000000E-01  0.00000000E+00
                      -2.50000000E-01 -2.50000000E-01  2.50000000E-01
                      -2.50000000E-01  0.00000000E+00  0.00000000E+00
                       5.00000000E-01  5.00000000E-01  2.50000000E-01
                       0.00000000E+00 -2.50000000E-01  0.00000000E+00
                       5.00000000E-01 -2.50000000E-01  5.00000000E-01
                       5.00000000E-01  0.00000000E+00  2.50000000E-01
         kptrlatt        2   -2    2      0    4    0     -2   -2    2
          kptrlen      2.23644000E+01
P           mkmem           8
            natom           6
            nband          17
            ngfft          30      18      30
             nkpt           8
            nstep          10
             nsym           8
            ntime          10
           ntypat           2
              occ      2.000000  2.000000  2.000000  2.000000  2.000000  2.000000
                       2.000000  2.000000  2.000000  2.000000  2.000000  2.000000
                       2.000000  2.000000  2.000000  2.000000  0.000000
          optcell           1
           shiftk      5.00000000E-01  0.00000000E+00  5.00000000E-01
          spgroup         113
           symrel      1  0  0   0  1  0   0  0  1       1  0  0   0 -1  0   0  0 -1
                      -1  0  0   0  1  0   0  0 -1      -1  0  0   0 -1  0   0  0  1
                       0  0  1   0  1  0   1  0  0       0  0  1   0 -1  0  -1  0  0
                       0  0 -1   0  1  0  -1  0  0       0  0 -1   0 -1  0   1  0  0
            tnons      0.0000000  0.0000000  0.0000000     0.5000000 -0.4999911  0.5000000
                       0.0000000  0.0000000  0.0000000     0.5000000 -0.4999911  0.5000000
                       0.0000000  0.0000000  0.0000000     0.5000000 -0.4999911  0.5000000
                       0.0000000  0.0000000  0.0000000     0.5000000 -0.4999911  0.5000000
           toldfe      1.00000000E-04 Hartree
            typat      1  1  2  2  2  2
              wtk        0.12500    0.12500    0.25000    0.12500    0.12500    0.06250
                         0.06250    0.12500
           xangst      0.0000000000E+00  0.0000000000E+00  0.0000000000E+00
                       2.2968407562E+00  1.4793678043E+00  2.2968407562E+00
                       1.4240158683E+00  0.0000000000E+00  1.4240158683E+00
                       3.1696656440E+00  0.0000000000E+00  3.1696656440E+00
                       3.7208566245E+00  1.4793678043E+00  8.7282488785E-01
                       8.7282488785E-01  1.4793678043E+00  3.7208566245E+00
            xcart      0.0000000000E+00  0.0000000000E+00  0.0000000000E+00
                       4.3404000000E+00  2.7956000000E+00  4.3404000000E+00
                       2.6910000000E+00  0.0000000000E+00  2.6910000000E+00
                       5.9898000000E+00  0.0000000000E+00  5.9898000000E+00
                       7.0314000000E+00  2.7956000000E+00  1.6494000000E+00
                       1.6494000000E+00  2.7956000000E+00  7.0314000000E+00
             xred      0.0000000000E+00  0.0000000000E+00  0.0000000000E+00
                       5.0000000000E-01  5.0000894278E-01  5.0000000000E-01
                       3.0999447056E-01  0.0000000000E+00  3.0999447056E-01
                       6.9000552944E-01  0.0000000000E+00  6.9000552944E-01
                       8.0999447056E-01  5.0000894278E-01  1.9000552944E-01
                       1.9000552944E-01  5.0000894278E-01  8.0999447056E-01
            znucl       22.00000    8.00000

 chkinp: Checking input parameters for consistency.

 chkinp: WARNING -
   Chksymbreak=1 . Found potentially symmetry-breaking value of tnons,
   which is neither a rational fraction in 1/8th nor in 1/12th :
   for the symmetry number    2
   symrel is   1  0  0  0 -1  0  0  0 -1
   tnons is     5.000000E-01   -4.999911E-01    5.000000E-01
   Please, read the description of the input variable chksymbreak,
   then, if you feel confident, you might switch it to zero, or consult with the forum.

[...]

 chkinp: WARNING -
   Chksymbreak=1 . Found potentially symmetry-breaking value of tnons,
   which is neither a rational fraction in 1/8th nor in 1/12th :
   for the symmetry number    8
   symrel is   0  0 -1  0 -1  0  1  0  0
   tnons is     5.000000E-01   -4.999911E-01    5.000000E-01
   Please, read the description of the input variable chksymbreak,
   then, if you feel confident, you might switch it to zero, or consult with the forum.

== DATASET  1 ==================================================================
-   nproc =    1

 Real(R)+Recip(G) space primitive vectors, cartesian coordinates (Bohr,Bohr^-1):
 R(1)=  8.6808000  0.0000000  0.0000000  G(1)=  0.1151968  0.0000000  0.0000000
 R(2)=  0.0000000  5.5911000  0.0000000  G(2)=  0.0000000  0.1788557  0.0000000
 R(3)=  0.0000000  0.0000000  8.6808000  G(3)=  0.0000000  0.0000000  0.1151968
 Unit cell volume ucvol=  4.2132455E+02 bohr^3
 Angles (23,13,12)=  9.00000000E+01  9.00000000E+01  9.00000000E+01 degrees

 getcut: wavevector=  0.0000  0.0000  0.0000  ngfft=  30  18  30
         ecut(hartree)=     11.520   => boxcut(ratio)=   2.10709

--- Pseudopotential description ------------------------------------------------
- pspini: atom type   1  psp file is ../../../Psps_for_tests/22ti.pspnc
- pspatm: opening atomic psp file    ../../../Psps_for_tests/22ti.pspnc
-  Troullier-Martins psp for element  Ti        Thu Oct 27 17:33:40 EDT 1994
- 22.00000   4.00000    940714                znucl, zion, pspdat
    1    1    2    0      2001   0.00000      pspcod,pspxc,lmax,lloc,mmax,r2well
    0   5.166   8.509    0   2.4203472        l,e99.0,e99.9,nproj,rcpsp
   0.00000000   0.00000000   0.00000000   0.00000000     rms, ekb1, ekb2, epsatm
    1   2.285   3.944    1   2.9934301        l,e99.0,e99.9,nproj,rcpsp
   0.00000000   0.00000000   0.00000000   0.00000000     rms, ekb1, ekb2, epsatm
    2  20.947  27.069    1   1.9326638        l,e99.0,e99.9,nproj,rcpsp
   0.00000000   0.00000000   0.00000000   0.00000000     rms, ekb1, ekb2, epsatm
    2.82741504495369    0.09256629068341    1.82586447305099   rchrg,fchrg,qchrg
  pspatm : epsatm=   66.67453488
         --- l  ekb(1:nproj) -->
             1    0.915537
             2   -8.015692
 pspatm: atomic psp has been read  and splines computed

- pspini: atom type   2  psp file is ../../../Psps_for_tests/8o.pspnc
- pspatm: opening atomic psp file    ../../../Psps_for_tests/8o.pspnc
-  Troullier-Martins psp for element  O         Thu Oct 27 17:29:57 EDT 1994
-  8.00000   6.00000    940714                znucl, zion, pspdat
    1    1    1    1      2001   0.00000      pspcod,pspxc,lmax,lloc,mmax,r2well
    0   5.480  16.893    1   1.4482335        l,e99.0,e99.9,nproj,rcpsp
   0.00000000   0.00000000   0.00000000   0.00000000     rms, ekb1, ekb2, epsatm
    1  20.911  28.075    0   1.4482335        l,e99.0,e99.9,nproj,rcpsp
   0.00000000   0.00000000   0.00000000   0.00000000     rms, ekb1, ekb2, epsatm
    0.56990156784787    3.95561236318184    0.63894027514378   rchrg,fchrg,qchrg
  pspatm : epsatm=    1.57752239
         --- l  ekb(1:nproj) -->
             0    5.670783
 pspatm: atomic psp has been read  and splines computed

   4.46909310E+03                                ecore*ucvol(ha*bohr**3)

_setup2: Arith. and geom. avg. npw (full set) are     788.688     788.675

=== [ionmov= 2] Broyden-Fletcher-Goldfard-Shanno method (forces)

--- Iteration: ( 1/10) Internal Cycle: (1/1)

---SELF-CONSISTENT-FIELD CONVERGENCE--------------------------------------------

     iter   Etot(hartree)      deltaE(h)  residm     vres2
 ETOT  1  -67.946585769725    -6.795E+01 5.776E-02 3.119E+02
 ETOT  2  -68.321001290695    -3.744E-01 2.795E-03 9.774E+01
 ETOT  3  -68.471607659171    -1.506E-01 2.305E-03 5.337E-01
 ETOT  4  -68.471925317968    -3.177E-04 4.011E-04 3.441E-03
 ETOT  5  -68.471927504710    -2.187E-06 3.908E-05 9.771E-05
 ETOT  6  -68.471927603415    -9.871E-08 6.142E-05 6.569E-07

 At SCF step    6, etot is converged :
  for the second time, diff in etot=  9.871E-08 < toldfe=  1.000E-04

 Cartesian components of stress tensor (hartree/bohr^3)
  sigma(1 1)= -2.92757763E-03  sigma(3 2)=  0.00000000E+00
  sigma(2 2)= -5.92962554E-03  sigma(3 1)=  0.00000000E+00
  sigma(3 3)= -2.92757763E-03  sigma(2 1)=  0.00000000E+00

 Integrated electronic density in atomic spheres:
 Atom  Sphere_radius  Integrated_density
    1        2.00000          0.95341993
    2        2.00000          0.95341993
    3        2.00000          6.19780275
    4        2.00000          6.19780275
    5        2.00000          6.19780274
    6        2.00000          6.19780274

---OUTPUT-----------------------------------------------------------------------

 Cartesian coordinates (xcart) [bohr]
  0.00000000000000E+00  0.00000000000000E+00  0.00000000000000E+00
  4.34040000000000E+00  2.79560000000000E+00  4.34040000000000E+00
  2.69100000000000E+00  0.00000000000000E+00  2.69100000000000E+00
  5.98980000000000E+00  0.00000000000000E+00  5.98980000000000E+00
  7.03140000000000E+00  2.79560000000000E+00  1.64940000000000E+00
[...]
  0.00000000000000E+00 -5.92962554048533E-03  0.00000000000000E+00
  0.00000000000000E+00  0.00000000000000E+00 -2.92757762975566E-03
 Total energy (etotal) [Ha]= -6.84719276034154E+01

[...]

 Difference of energy with previous step (new-old):
           Absolute (Ha)=-3.50101E-01
           Relative     =-5.10001E-03

[...]

 Difference of energy with previous step (new-old):
           Absolute (Ha)= 3.20598E-05
           Relative     = 4.65793E-07

[...]

--- Iteration: ( 9/10) Internal Cycle: (1/1)

---SELF-CONSISTENT-FIELD CONVERGENCE--------------------------------------------

     iter   Etot(hartree)      deltaE(h)  residm     vres2
 ETOT  1  -68.828546726240    -6.883E+01 5.280E-07 4.187E-05
 ETOT  2  -68.828546761611    -3.537E-08 2.183E-11 2.223E-05
 ETOT  3  -68.828546810516    -4.890E-08 4.141E-10 6.834E-08

 At SCF step    3, etot is converged :
  for the second time, diff in etot=  4.890E-08 < toldfe=  1.000E-04

[...]

 Integrated electronic density in atomic spheres:
 Atom  Sphere_radius  Integrated_density
    1        2.00000          0.55315208
    2        2.00000          0.55315208
    3        2.00000          5.80555664
    4        2.00000          5.80555664
    5        2.00000          5.80555664
    6        2.00000          5.80555664

---OUTPUT-----------------------------------------------------------------------

 Cartesian coordinates (xcart) [bohr]
  6.18346547040380E-18  3.77979246524159E-05  1.16163108867908E-18
  4.92999933253678E+00  3.17531611739187E+00  4.92999933253678E+00
  2.96065221780095E+00  2.77082388394769E-05  2.96065221780095E+00
  6.89934644727262E+00  2.77082388394769E-05  6.89934644727262E+00
  7.89065155033772E+00  3.17532620707768E+00  1.96934711473583E+00
  1.96934711473583E+00  3.17532620707768E+00  7.89065155033772E+00
 Reduced coordinates (xred)
  6.27126400362213E-19  5.95187209013909E-06  1.17812499589260E-19
  5.00000000000000E-01  5.00002990911977E-01  5.00000000000000E-01
  3.00269028259433E-01  4.36309387174383E-06  3.00269028259433E-01
  6.99730971740567E-01  4.36309387174383E-06  6.99730971740567E-01
  8.00269028259433E-01  5.00004579690196E-01  1.99730971740567E-01
  1.99730971740567E-01  5.00004579690196E-01  8.00269028259433E-01
 Cartesian forces (fcart) [Ha/bohr]; max,rms= 4.91049E-06 3.29207E-06 (free atoms)
 -0.00000000000000E+00 -1.03829354362480E-06  2.82344315751433E-22
 -0.00000000000000E+00  1.03829354362480E-06  2.82344315751433E-22
  4.91048749349503E-06  6.94356962035393E-08  4.91048749349503E-06
 -4.91048749349503E-06  6.94356962035393E-08 -4.91048749349503E-06
  4.91048749349503E-06 -6.94356962035388E-08 -4.91048749349503E-06
 -4.91048749349503E-06 -6.94356962035398E-08  4.91048749349503E-06
 Reduced forces (fred)
 -0.00000000000000E+00  6.59378100447431E-06 -2.78391457640024E-21
 -0.00000000000000E+00 -6.59378100447431E-06 -2.78391457640024E-21
 -4.84174001307214E-05 -4.40957932822122E-07 -4.84174001307214E-05
  4.84174001307214E-05 -4.40957932822122E-07  4.84174001307214E-05
 -4.84174001307214E-05  4.40957932822118E-07  4.84174001307214E-05
  4.84174001307214E-05  4.40957932822125E-07 -4.84174001307214E-05
 Scale of Primitive Cell (acell) [bohr]
  9.85999866507356E+00  6.35059424664694E+00  9.85999866507356E+00
 Real space primitive translations (rprimd) [bohr]
  9.85999866507356E+00  0.00000000000000E+00  0.00000000000000E+00
  0.00000000000000E+00  6.35059424664694E+00  0.00000000000000E+00
  0.00000000000000E+00  0.00000000000000E+00  9.85999866507356E+00
 Unitary Cell Volume (ucvol) [Bohr^3]=  6.17402065243527E+02
 Angles (23,13,12)= [degrees]
  9.00000000000000E+01  9.00000000000000E+01  9.00000000000000E+01
 Lengths [Bohr]
  9.85999866507356E+00  6.35059424664694E+00  9.85999866507356E+00
 Stress tensor in cartesian coordinates (strten) [Ha/bohr^3]
  2.52726008820770E-04  0.00000000000000E+00  0.00000000000000E+00
  0.00000000000000E+00 -5.04899873148583E-04  0.00000000000000E+00
  0.00000000000000E+00  0.00000000000000E+00  2.52726008820770E-04
 Total energy (etotal) [Ha]= -6.88285468105159E+01

 Difference of energy with previous step (new-old):
           Absolute (Ha)=-1.81516E-08
           Relative     =-2.63722E-10

 At Broyd/MD step   9, gradients are converged :
  max grad (force/stress) = 1.8405E-05 < tolmxf= 5.0000E-05 ha/bohr (free atoms)

 ----iterations are completed or convergence reached----

 Mean square residual over all n,k,spin=   6.7361E-11; max=  4.1414E-10
 reduced coordinates (array xred) for    6 atoms
       0.000000000000      0.000005951872      0.000000000000
       0.500000000000      0.500002990912      0.500000000000
       0.300269028259      0.000004363094      0.300269028259
       0.699730971741      0.000004363094      0.699730971741
       0.800269028259      0.500004579690      0.199730971741
       0.199730971741      0.500004579690      0.800269028259
 rms dE/dt=  3.2354E-05; max dE/dt=  4.8417E-05; dE/dt below (all hartree)
    1       0.000000000000      0.000006593781      0.000000000000
    2       0.000000000000     -0.000006593781      0.000000000000
    3      -0.000048417400     -0.000000440958     -0.000048417400
    4       0.000048417400     -0.000000440958      0.000048417400
    5      -0.000048417400      0.000000440958      0.000048417400
    6       0.000048417400      0.000000440958     -0.000048417400

 cartesian coordinates (angstrom) at end:
    1      0.00000000000000     0.00002000180026     0.00000000000000
    2      2.60884328514238     1.68030491939227     2.60884328514238
    3      1.56670967622170     0.00001466256848     1.56670967622170
    4      3.65097689406306     0.00001466256848     3.65097689406306
    5      4.17555296136407     1.68031025862404     1.04213360892068
    6      1.04213360892068     1.68031025862404     4.17555296136407

 cartesian forces (hartree/bohr) at end:
    1     -0.00000000000000    -0.00000103829354     0.00000000000000
    2     -0.00000000000000     0.00000103829354     0.00000000000000
    3      0.00000491048749     0.00000006943570     0.00000491048749
    4     -0.00000491048749     0.00000006943570    -0.00000491048749
    5      0.00000491048749    -0.00000006943570    -0.00000491048749
    6     -0.00000491048749    -0.00000006943570     0.00000491048749
 frms,max,avg= 3.2920653E-06 4.9104875E-06   0.000E+00  0.000E+00  0.000E+00 h/b

 cartesian forces (eV/Angstrom) at end:
    1     -0.00000000000000    -0.00005339119621     0.00000000000000
    2     -0.00000000000000     0.00005339119621     0.00000000000000
    3      0.00025250739820     0.00000357052676     0.00025250739820
    4     -0.00025250739820     0.00000357052676    -0.00025250739820
    5      0.00025250739820    -0.00000357052676    -0.00025250739820
    6     -0.00025250739820    -0.00000357052676     0.00025250739820
 frms,max,avg= 1.6928479E-04 2.5250740E-04   0.000E+00  0.000E+00  0.000E+00 e/A
 length scales=  9.859998665074  6.350594246647  9.859998665074 bohr
              =  5.217686570285  3.360589736328  5.217686570285 angstroms
 prteigrs : about to open file RutileGeom2_o_EIG
 Fermi (or HOMO) energy (hartree) =   0.00795   Average Vxc (hartree)=  -0.38008
 Eigenvalues (hartree) for nkpt=   8  k points:
 kpt#   1, nband= 17, wtk=  0.12500, kpt= -0.2500  0.5000  0.0000 (reduced coord)
  -0.91962   -0.91962   -0.91577   -0.91577   -0.18894   -0.18894   -0.16022   -0.16022
  -0.12331   -0.12331   -0.08514   -0.08514   -0.04415   -0.04415   -0.03343   -0.03343
   0.21614
 prteigrs : prtvol=0 or 1, do not print more k-points.

 Components of total free energy (in Hartree) :

    Kinetic energy  =  3.28881706332757E+01
    Hartree energy  =  1.61508414071847E+01
    XC energy       = -1.86870360181588E+01
    Ewald energy    = -5.11857942483830E+01
    PspCore energy  =  7.23854575531650E+00
    Loc. psp. energy= -6.58007867756703E+01
    NL   psp  energy=  1.05675124359192E+01
    >>>>>>>>> Etotal= -6.88285468105159E+01

 Other information on the energy :
    Total energy(eV)= -1.87292000778693E+03 ; Band energy (Ha)=  -9.6689572884E+00
 rms coord change=  6.4836E-03   atom, delta coord (reduced):
     1        0.000000000000      0.000005951872      0.000000000000
     2        0.000000000000     -0.000005951872      0.000000000000
     3       -0.009725442296      0.000004363094     -0.009725442296
     4        0.009725442296      0.000004363094      0.009725442296
     5       -0.009725442296     -0.000004363094      0.009725442296
     6        0.009725442296     -0.000004363094     -0.009725442296

 Cartesian components of stress tensor (hartree/bohr^3)
  sigma(1 1)=  2.52726009E-04  sigma(3 2)=  0.00000000E+00
  sigma(2 2)= -5.04899873E-04  sigma(3 1)=  0.00000000E+00
  sigma(3 3)=  2.52726009E-04  sigma(2 1)=  0.00000000E+00

-Cartesian components of stress tensor (GPa)         [Pressure= -5.4149E-03 GPa]
- sigma(1 1)=  7.43545464E+00  sigma(3 2)=  0.00000000E+00
- sigma(2 2)= -1.48546646E+01  sigma(3 1)=  0.00000000E+00
- sigma(3 3)=  7.43545464E+00  sigma(2 1)=  0.00000000E+00

== END DATASET(S) ==============================================================

 -outvars: echo values of variables after computation  --------
            acell      9.8599986651E+00  6.3505942466E+00  9.8599986651E+00 Bohr
              amu      4.78800000E+01  1.59994000E+01
           diemac      1.20000000E+01
          dilatmx      1.20000000E+00
             ecut      8.00000000E+00 Hartree
           ecutsm      5.00000000E-01 Hartree
           etotal     -6.8828546811E+01
            fcart     -0.0000000000E+00 -1.0382935436E-06  2.8234431575E-22
                      -0.0000000000E+00  1.0382935436E-06  2.8234431575E-22
                       4.9104874935E-06  6.9435696204E-08  4.9104874935E-06
                      -4.9104874935E-06  6.9435696204E-08 -4.9104874935E-06
                       4.9104874935E-06 -6.9435696204E-08 -4.9104874935E-06
                      -4.9104874935E-06 -6.9435696204E-08  4.9104874935E-06
-          fftalg         112
           getwfk          -1
           ionmov           2
              kpt     -2.50000000E-01  5.00000000E-01  0.00000000E+00
                       5.00000000E-01 -2.50000000E-01  0.00000000E+00
                      -2.50000000E-01 -2.50000000E-01  2.50000000E-01
                      -2.50000000E-01  0.00000000E+00  0.00000000E+00
                       5.00000000E-01  5.00000000E-01  2.50000000E-01
                       0.00000000E+00 -2.50000000E-01  0.00000000E+00
                       5.00000000E-01 -2.50000000E-01  5.00000000E-01
                       5.00000000E-01  0.00000000E+00  2.50000000E-01
         kptrlatt        2   -2    2      0    4    0     -2   -2    2
          kptrlen      2.23644000E+01
P           mkmem           8
            natom           6
            nband          17
            ngfft          30      18      30
             nkpt           8
            nstep          10
             nsym           8
            ntime          10
           ntypat           2
              occ      2.000000  2.000000  2.000000  2.000000  2.000000  2.000000
                       2.000000  2.000000  2.000000  2.000000  2.000000  2.000000
                       2.000000  2.000000  2.000000  2.000000  0.000000
          optcell           1
           shiftk      5.00000000E-01  0.00000000E+00  5.00000000E-01
          spgroup         113
           strten      2.5272600882E-04 -5.0489987315E-04  2.5272600882E-04
                       0.0000000000E+00  0.0000000000E+00  0.0000000000E+00
           symrel      1  0  0   0  1  0   0  0  1       1  0  0   0 -1  0   0  0 -1
                      -1  0  0   0  1  0   0  0 -1      -1  0  0   0 -1  0   0  0  1
                       0  0  1   0  1  0   1  0  0       0  0  1   0 -1  0  -1  0  0
                       0  0 -1   0  1  0  -1  0  0       0  0 -1   0 -1  0   1  0  0
            tnons      0.0000000  0.0000000  0.0000000     0.5000000 -0.4999911  0.5000000
                       0.0000000  0.0000000  0.0000000     0.5000000 -0.4999911  0.5000000
                       0.0000000  0.0000000  0.0000000     0.5000000 -0.4999911  0.5000000
                       0.0000000  0.0000000  0.0000000     0.5000000 -0.4999911  0.5000000
           toldfe      1.00000000E-04 Hartree
            typat      1  1  2  2  2  2
              wtk        0.12500    0.12500    0.25000    0.12500    0.12500    0.06250
                         0.06250    0.12500
           xangst      3.2721489970E-18  2.0001800258E-05  6.1470869692E-19
                       2.6088432851E+00  1.6803049194E+00  2.6088432851E+00
                       1.5667096762E+00  1.4662568484E-05  1.5667096762E+00
                       3.6509768941E+00  1.4662568484E-05  3.6509768941E+00
                       4.1755529614E+00  1.6803102586E+00  1.0421336089E+00
                       1.0421336089E+00  1.6803102586E+00  4.1755529614E+00
            xcart      6.1834654704E-18  3.7797924652E-05  1.1616310887E-18
                       4.9299993325E+00  3.1753161174E+00  4.9299993325E+00
                       2.9606522178E+00  2.7708238839E-05  2.9606522178E+00
                       6.8993464473E+00  2.7708238839E-05  6.8993464473E+00
                       7.8906515503E+00  3.1753262071E+00  1.9693471147E+00
                       1.9693471147E+00  3.1753262071E+00  7.8906515503E+00
             xred      6.2712640036E-19  5.9518720901E-06  1.1781249959E-19
                       5.0000000000E-01  5.0000299091E-01  5.0000000000E-01
                       3.0026902826E-01  4.3630938717E-06  3.0026902826E-01
                       6.9973097174E-01  4.3630938717E-06  6.9973097174E-01
                       8.0026902826E-01  5.0000457969E-01  1.9973097174E-01
                       1.9973097174E-01  5.0000457969E-01  8.0026902826E-01
            znucl       22.00000    8.00000

-
-  as well as % of the time and number of calls for node 0-
-<BEGIN_TIMER mpi_nprocs = 1, omp_nthreads = 1, mpi_rank = 0>
- cpu_time =           23.1, wall_time =           23.5
-
-                                                                  (-1=no count)
- fourwf%(pot)                  11.391  49.4     11.487  48.8          40962      -1.00        0.99       0.99
- projbd                         2.953  12.8      2.807  11.9          65332      -1.00        1.05       1.05
- nonlop(apply)                  2.875  12.5      3.044  12.9          40962      -1.00        0.94       0.94
- fourwf%(den)                   1.000   4.3      0.916   3.9           5504      -1.00        1.09       1.09
- vtowfk(ssdiag)                 0.797   3.5      0.911   3.9             -1      -1.00        0.87       0.87
- pspini                         0.688   3.0      0.691   2.9              1      -1.00        0.99       0.99
- getghc-other                   0.500   2.2      0.547   2.3             -1      -1.00        0.91       0.91
- nonlop(forstr)                 0.172   0.7      0.178   0.8           1152      -1.00        0.97       0.97
- others (105)                   0.641   2.8      0.734   3.1             -1      -1.00        0.87       0.87
-<END_TIMER>
-
- subtotal                      21.016  91.1     21.315  90.5                                  0.99       0.99

- as well as % of the total time and number of calls

-<BEGIN_TIMER mpi_nprocs = 1, omp_nthreads = 1, mpi_rank = world>
- cpu_time =          23.1, wall_time =          23.5
-
-                                                                  (-1=no count)
- fourwf%(pot)                  11.391  49.4     11.487  48.8          40962      -1.00        0.99       0.99
- projbd                         2.953  12.8      2.807  11.9          65332      -1.00        1.05       1.05
- nonlop(apply)                  2.875  12.5      3.044  12.9          40962      -1.00        0.94       0.94
- fourwf%(den)                   1.000   4.3      0.916   3.9           5504      -1.00        1.09       1.09
- vtowfk(ssdiag)                 0.797   3.5      0.911   3.9             -1      -1.00        0.87       0.87
- pspini                         0.688   3.0      0.691   2.9              1      -1.00        0.99       0.99
- getghc-other                   0.500   2.2      0.547   2.3             -1      -1.00        0.91       0.91
- nonlop(forstr)                 0.172   0.7      0.178   0.8           1152      -1.00        0.97       0.97
- others (105)                   0.641   2.8      0.734   3.1             -1      -1.00        0.87       0.87
-<END_TIMER>

- subtotal                      21.016  91.1     21.315  90.5                                  0.99       0.99

 Suggested references for the acknowledgment of ABINIT usage.

 Calculation completed.
.Delivered   4 WARNINGs and   9 COMMENTs to log file.