.Version 8.6.3 of ABINIT
.(sequential version, prepared for a x86_64_linux_gnu5.4 computer)

 ABINIT is a project of the Universite Catholique de Louvain,
 Corning Inc. and other collaborators, see ~abinit/doc/developers/contributors.txt .
 Please read ~abinit/doc/users/acknowledgments.html for suggested
 acknowledgments of the ABINIT effort.

.Starting date : Thu 26 Apr 2018.
- ( at 17h39 )

 === Build Information ===
  Version       : 8.6.3
  Build target  : x86_64_linux_gnu5.4
  Build date    : 20180412

 === Optimizations ===
  Debug level        : basic
  Optimization level : standard
  Architecture       : unknown_unknown

 === Multicore ===
  Parallel build : no
  Parallel I/O   : no
  openMP support : no
  GPU support    : no

 === Connectors / Fallbacks ===
  Connectors on : yes
  Fallbacks on  : yes
  DFT flavor    : none
  FFT flavor    : none
  LINALG flavor : netlib-fallback
  MATH flavor   : none
  TIMER flavor  : abinit
  TRIO flavor   : none

 === Experimental features ===
  Bindings            : @enable_bindings@
  Exports             : no
  GW double-precision : no

 Default optimizations:
   -O2 -mtune=native -march=native

 Optimizations for 20_datashare:
   -O0

 CPP options activated during the build:

                    CC_GNU                   CXX_GNU                    FC_GNU

 HAVE_FC_ALLOCATABLE_DT...             HAVE_FC_ASYNC         HAVE_FC_BACKTRACE

  HAVE_FC_COMMAND_ARGUMENT      HAVE_FC_COMMAND_LINE        HAVE_FC_CONTIGUOUS

           HAVE_FC_CPUTIME              HAVE_FC_EXIT             HAVE_FC_FLUSH

             HAVE_FC_GAMMA            HAVE_FC_GETENV   HAVE_FC_IEEE_EXCEPTIONS

          HAVE_FC_INT_QUAD             HAVE_FC_IOMSG     HAVE_FC_ISO_C_BINDING

  HAVE_FC_ISO_FORTRAN_2008        HAVE_FC_LONG_LINES        HAVE_FC_MOVE_ALLOC

           HAVE_FC_PRIVATE         HAVE_FC_PROTECTED         HAVE_FC_STREAM_IO

            HAVE_FC_SYSTEM          HAVE_FORTRAN2003        HAVE_LIBPAW_ABINIT

      HAVE_LIBTETRA_ABINIT             HAVE_OS_LINUX         HAVE_TIMER_ABINIT

              USE_MACROAVE

- input  file    -> manualGeomOpt3.in
- output file    -> manualGeomOpt3.out
- root for input  files -> manualGeomOpt3_i
- root for output files -> manualGeomOpt3_o

-instrng: 90 lines of input have been read from file manualGeomOpt3.in

 Please give name of formatted atomic psp file
 iofn2 : for atom type 1, psp file is ../../../Psps_for_tests/Ti.psp8

 Please give name of formatted atomic psp file
 iofn2 : for atom type 2, psp file is ../../../Psps_for_tests/O.psp8

 Please give name of formatted atomic psp file
 iofn2 : for atom type 3, psp file is ../../../Psps_for_tests/Pd.psp8
  read the values zionpsp= 12.0 , pspcod=   8 , lmax=   2
  read the values zionpsp=  6.0 , pspcod=   8 , lmax=   2
  read the values zionpsp= 18.0 , pspcod=   8 , lmax=   2

 inpspheads: deduce mpsang = 3, n1xccc = 2501.
 invars1 : treat image number: 1

 symlatt : the Bravais lattice is tP (primitive tetragonal)
  xcart  is defined in input file
 ingeo : takes atomic coordinates from input array xcart
 symfind : exit, nsym=1
   symrel matrices, symafm and tnons are :
   1       1   0   0     0   1   0     0   0   1       1      0.0000  0.0000  0.0000

 symlatt : the Bravais lattice is tP (primitive tetragonal)

[...]

--- !COMMENT
src_file: symbrav.F90
src_line: 201
message: |
    The Bravais lattice determined only from the primitive
    vectors, bravais(1)=  4, is more symmetric
    than the real one, iholohedry=  1, obtained by taking into
    account the atomic positions. Start deforming the primitive vector set.
...

 symlatt : the Bravais lattice is mC (one-face-centered monoclinic)

--- !COMMENT
src_file: symbrav.F90
src_line: 210
message: |
    The Bravais lattice determined from modified primitive
    vectors, bravais(1)=  2, has a lower symmetry than before,
    but is still more symmetric than the real one, iholohedry=  1
    obtained by taking into account the atomic positions.
...

 symlatt : the Bravais lattice is aP (primitive triclinic)
 symspgr : spgroup=   1  P1   (=C1^1)
 ingeo : angdeg(1:3)=   90.00000000   90.00000000   90.00000000
 invars1 : treat image number: 1

[...]

 symlatt : the Bravais lattice is aP (primitive triclinic)
 symspgr : spgroup=   1  P1   (=C1^1)
 ingeo : angdeg(1:3)=   90.00000000   90.00000000   90.00000000
 invars1 : treat image number: 1

 symlatt : the Bravais lattice is tP (primitive tetragonal)
  xcart  is defined in input file
 ingeo : takes atomic coordinates from input array xcart
 symfind : exit, nsym=1
   symrel matrices, symafm and tnons are :
   1       1   0   0     0   1   0     0   0   1       1      0.0000  0.0000  0.0000

[...]

 symlatt : the Bravais lattice is tP (primitive tetragonal)

--- !COMMENT
src_file: symbrav.F90
src_line: 201
message: |
    The Bravais lattice determined only from the primitive
    vectors, bravais(1)=  4, is more symmetric
    than the real one, iholohedry=  1, obtained by taking into
    account the atomic positions. Start deforming the primitive vector set.
...

 symlatt : the Bravais lattice is mC (one-face-centered monoclinic)

--- !COMMENT
src_file: symbrav.F90
src_line: 210
message: |
    The Bravais lattice determined from modified primitive
    vectors, bravais(1)=  2, has a lower symmetry than before,
    but is still more symmetric than the real one, iholohedry=  1
    obtained by taking into account the atomic positions.
...

 symlatt : the Bravais lattice is aP (primitive triclinic)
 symspgr : spgroup=   1  P1   (=C1^1)
 ingeo : angdeg(1:3)=   90.00000000   90.00000000   90.00000000
 invars2: take the default value of fband=  1.25000000E-01
 chkneu : initialized the occupation numbers for occopt=    1, spin-unpolarized or antiferromagnetic case :
  2.00  2.00  2.00  2.00  2.00  2.00  2.00  2.00  2.00  2.00  2.00  2.00
  2.00  2.00  2.00  2.00  2.00  2.00  2.00  2.00  2.00  2.00  2.00  2.00
  2.00  2.00  2.00  2.00  2.00  2.00  2.00  2.00  2.00  2.00  2.00  2.00
  2.00  2.00  2.00  2.00  2.00  2.00  2.00  2.00  2.00  2.00  2.00  2.00
  2.00  2.00  2.00  2.00  2.00  2.00  2.00  2.00  2.00  2.00  2.00  2.00
  0.00  0.00
 invars2: take the default value of fband=  1.25000000E-01
 chkneu : initialized the occupation numbers for occopt=    1, spin-unpolarized or antiferromagnetic case :
  2.00  2.00  2.00  2.00  2.00  2.00  2.00  2.00  2.00  2.00  2.00  2.00
  2.00  2.00  2.00  2.00  2.00  2.00  2.00  2.00  2.00  2.00  2.00  2.00
  2.00  2.00  2.00  2.00  2.00  2.00  2.00  2.00  2.00  2.00  2.00  2.00
  2.00  2.00  2.00  2.00  2.00  2.00  2.00  2.00  2.00  2.00  2.00  2.00
  2.00  2.00  2.00  2.00  2.00  2.00  2.00  2.00  2.00  2.00  2.00  2.00
  0.00  0.00
 invars2: take the default value of fband=  1.25000000E-01
 chkneu : initialized the occupation numbers for occopt=    1, spin-unpolarized or antiferromagnetic case :
  2.00  2.00  2.00  2.00  2.00  2.00  2.00  2.00  2.00  2.00  2.00  2.00
  2.00  2.00  2.00  2.00  2.00  2.00  2.00  2.00  2.00  2.00  2.00  2.00
  2.00  2.00  2.00  2.00  2.00  2.00  2.00  2.00  2.00  2.00  2.00  2.00
  2.00  2.00  2.00  2.00  2.00  2.00  2.00  2.00  2.00  2.00  2.00  2.00
  2.00  2.00  2.00  2.00  2.00  2.00  2.00  2.00  2.00  2.00  2.00  2.00
  0.00  0.00
 invars2: take the default value of fband=  1.25000000E-01
 chkneu : initialized the occupation numbers for occopt=    1, spin-unpolarized or antiferromagnetic case :
  2.00  2.00  2.00  2.00  2.00  2.00  2.00  2.00  2.00  2.00  2.00  2.00
  2.00  2.00  2.00  2.00  2.00  2.00  2.00  2.00  2.00  2.00  2.00  2.00
  2.00  2.00  2.00  2.00  2.00  2.00  2.00  2.00  2.00  2.00  2.00  2.00
  2.00  2.00  2.00  2.00  2.00  2.00  2.00  2.00  2.00  2.00  2.00  2.00
  2.00  2.00  2.00  2.00  2.00  2.00  2.00  2.00  2.00  2.00  2.00  2.00
  0.00  0.00
 invars2: take the default value of fband=  1.25000000E-01
 chkneu : initialized the occupation numbers for occopt=    1, spin-unpolarized or antiferromagnetic case :
  2.00  2.00  2.00  2.00  2.00  2.00  2.00  2.00  2.00  2.00  2.00  2.00
  2.00  2.00  2.00  2.00  2.00  2.00  2.00  2.00  2.00  2.00  2.00  2.00
  2.00  2.00  2.00  2.00  2.00  2.00  2.00  2.00  2.00  2.00  2.00  2.00
  2.00  2.00  2.00  2.00  2.00  2.00  2.00  2.00  2.00  2.00  2.00  2.00
  2.00  2.00  2.00  2.00  2.00  2.00  2.00  2.00  2.00  2.00  2.00  2.00
  0.00  0.00
mpi_setup: mkmem  undefined in the input file.Use default mkmem  = nkpt
 mpi_setup: With nkpt_me=2 and mkmem  = 2, ground state wf handled in core.
mpi_setup: mkqmem undefined in the input file.Use default mkqmem = nkpt
 mpi_setup: With nkpt_me=2 and mkqmem = 2, ground state wf handled in core.
mpi_setup: mk1mem undefined in the input file.Use default mk1mem = nkpt
 mpi_setup: With nkpt_me=2 and mk1mem = 2, ground state wf handled in core.
 For input ecut=  6.000000E+01 best grid ngfft=      64      64     180
       max ecut=  6.395504E+01

 ==== FFT mesh ====
  FFT mesh divisions ........................    64   64  180
  Augmented FFT divisions ...................    65   65  180
  FFT algorithm .............................   112
  FFT cache size ............................    16
 getmpw: optimal value of mpw= 41884
mpi_setup: mkmem  undefined in the input file.Use default mkmem  = nkpt
 mpi_setup: With nkpt_me=2 and mkmem  = 2, ground state wf handled in core.
mpi_setup: mkqmem undefined in the input file.Use default mkqmem = nkpt
 mpi_setup: With nkpt_me=2 and mkqmem = 2, ground state wf handled in core.
mpi_setup: mk1mem undefined in the input file.Use default mk1mem = nkpt
 mpi_setup: With nkpt_me=2 and mk1mem = 2, ground state wf handled in core.
 For input ecut=  6.000000E+01 best grid ngfft=      64      64     180
       max ecut=  6.147158E+01

[...]

 ==== FFT mesh ====
  FFT mesh divisions ........................    64   64  192
  Augmented FFT divisions ...................    65   65  192
  FFT algorithm .............................   112
  FFT cache size ............................    16
 getmpw: optimal value of mpw= 44404
mpi_setup: mkmem  undefined in the input file.Use default mkmem  = nkpt
 mpi_setup: With nkpt_me=2 and mkmem  = 2, ground state wf handled in core.
mpi_setup: mkqmem undefined in the input file.Use default mkqmem = nkpt
 mpi_setup: With nkpt_me=2 and mkqmem = 2, ground state wf handled in core.
mpi_setup: mk1mem undefined in the input file.Use default mk1mem = nkpt
 mpi_setup: With nkpt_me=2 and mk1mem = 2, ground state wf handled in core.
 For input ecut=  6.000000E+01 best grid ngfft=      64      64     192
       max ecut=  6.238565E+01

 ==== FFT mesh ====
  FFT mesh divisions ........................    64   64  192
  Augmented FFT divisions ...................    65   65  192
  FFT algorithm .............................   112
  FFT cache size ............................    16
 getmpw: optimal value of mpw= 45244

 DATASET    1 : space group P1 (#  1); Bravais aP (primitive triclinic)

 getdim_nloc : deduce lmnmax  =  18, lnmax  =   6,
                      lmnmaxso=  18, lnmaxso=   6.
     intxc =       0    ionmov =       0      iscf =       7    lmnmax =       6
     lnmax =       6     mgfft =     180  mpssoang =       3    mqgrid =    8718
[...]
                       4.7122053616E-02  8.4131097561E-03 -5.7189102843E-02
                       3.8156569758E-02 -3.8432061000E-02 -8.5420228034E-02
                      -7.6580973706E-02  5.5259456113E-03 -1.3516920534E-01
                       3.8228032251E-02 -3.6167296786E-01  7.4583828858E-02
                       4.0802826749E-02  3.6476646353E-01  6.2228801648E-02
                      -2.1429538318E-03 -3.0569462020E-04 -2.0698661638E-02
            fcart4     1.2378509871E-02  5.7662272246E-02  1.4870080131E-01
                      -1.3251121858E-02 -9.7888467834E-02  1.5167488282E-01
                      -5.5585269903E-02 -2.7194572863E-03 -1.0840852497E-01
                      -2.7342458093E-02  5.8212171822E-02 -4.8667973924E-02
                       4.8740473635E-02  1.0853050446E-02 -5.0645295992E-02
                       3.5502720178E-02 -3.1576608368E-02 -8.1265005436E-02
                      -7.5476744061E-02  3.4036018917E-03 -1.1561610517E-01
                       3.8444805269E-02 -3.7160485420E-01  6.6825018559E-02
                       3.9253756669E-02  3.7358434033E-01  6.1403987665E-02
                      -2.6646717071E-03  7.3950956757E-05 -2.4001784862E-02
            fcart5     1.1430966660E-02  4.8219524513E-02  9.2528885849E-02
                      -6.4601415894E-03 -9.8053481142E-02  3.8156164326E-02
                      -4.3788496927E-02 -1.3794674801E-03 -4.1673284339E-02
                      -2.4065476119E-02  5.4271593226E-02 -1.9747698606E-02
                       3.8479559395E-02  1.3338191523E-02 -2.9507493931E-02
                       2.5269854692E-02 -1.8758066477E-02 -2.6697596243E-02
                      -8.3355664180E-02  3.9743438332E-04 -1.2044175713E-01
                       4.1244223921E-02 -3.7127382593E-01  7.0748154964E-02
                       4.2386824636E-02  3.7301872497E-01  6.5739563527E-02
                      -1.1416504905E-03  2.1937240932E-04 -2.9104938421E-02
-          fftalg         112
              ixc          11
           jdtset        1    2    3    4    5
              kpt      1.25000000E-01  5.00000000E-01  5.00000000E-01
                       3.75000000E-01  5.00000000E-01  5.00000000E-01
           kptopt           2
         kptrlatt        4    0    0      0    1    0      0    0    1
          kptrlen      8.68080000E+00
P           mkmem           2
            natom          10
            nband          62
           ndtset           5
            ngfft1         64      64     180
            ngfft2         64      64     180
            ngfft3         64      64     192
            ngfft4         64      64     192
            ngfft5         64      64     192
             nkpt           2
            nstep          50
             nsym           1
           ntypat           3
              occ      2.000000  2.000000  2.000000  2.000000  2.000000  2.000000
                       2.000000  2.000000  2.000000  2.000000  2.000000  2.000000
                       2.000000  2.000000  2.000000  2.000000  2.000000  2.000000
                       2.000000  2.000000  2.000000  2.000000  2.000000  2.000000
                       2.000000  2.000000  2.000000  2.000000  2.000000  2.000000
                       2.000000  2.000000  2.000000  2.000000  2.000000  2.000000
                       2.000000  2.000000  2.000000  2.000000  2.000000  2.000000
                       2.000000  2.000000  2.000000  2.000000  2.000000  2.000000
                       2.000000  2.000000  2.000000  2.000000  2.000000  2.000000
                       2.000000  2.000000  2.000000  2.000000  2.000000  2.000000
                       0.000000  0.000000
           shiftk      5.00000000E-01  5.00000000E-01  5.00000000E-01
          spgroup           1
           strten1    -5.0467244549E-04 -1.4327990794E-03 -4.2934346205E-04
                       1.1930311905E-04 -1.5599779275E-04  1.4633746985E-05
           strten2     2.8466444251E-04 -7.6696471592E-04  3.7316721668E-04
                      -2.5713168558E-05 -1.4173824116E-04 -8.2392749282E-05
           strten3     2.5644915093E-04 -8.0779468817E-04  3.8202841534E-04
                      -1.8042195276E-05 -1.4185982349E-04 -7.5023041133E-05
           strten4     2.8514589117E-04 -7.4638614322E-04  3.1999007326E-04
                      -7.5625046194E-06 -1.3099706706E-04 -7.7506222509E-05
           strten5     2.7334856709E-04 -7.6172961797E-04  3.4702652284E-04
                      -9.0155695395E-06 -1.3130732070E-04 -8.9006511685E-05
           toldfe      1.00000000E-04 Hartree
            typat      1  1  2  2  2  2  3  3  3  3
              wtk        0.50000    0.50000
           xangst1     0.0000000000E+00  0.0000000000E+00  0.0000000000E+00
                       2.2968407562E+00  1.4793678043E+00  2.2968407562E+00
                       1.4240158683E+00  0.0000000000E+00  1.4240158683E+00
                       3.1696656440E+00  0.0000000000E+00  3.1696656440E+00
                       8.7282488785E-01  1.4793678043E+00  3.7208566245E+00
                       3.7208566245E+00  1.4793678043E+00  8.7282488785E-01
                       8.7282488785E-01  0.0000000000E+00  5.6520359295E+00
                       1.9453612542E+00  1.3755961537E+00  7.0276320832E+00
                       1.9453612542E+00 -1.3755961537E+00  7.0276320832E+00
                       0.0000000000E+00  0.0000000000E+00  8.4031753192E+00
           xangst2     0.0000000000E+00  0.0000000000E+00  0.0000000000E+00
                       2.2968407562E+00  1.4793678043E+00  2.2968407562E+00
                       1.4240158683E+00  0.0000000000E+00  1.4240158683E+00
                       3.1696656440E+00  0.0000000000E+00  3.1696656440E+00
                       8.7282488785E-01  1.4793678043E+00  3.7208566245E+00
                       3.7208566245E+00  1.4793678043E+00  8.7282488785E-01
                       8.7282488785E-01  0.0000000000E+00  5.9166245338E+00
                       1.9453612542E+00  1.3755961537E+00  7.2922206875E+00
                       1.9453612542E+00 -1.3755961537E+00  7.2922206875E+00
                       0.0000000000E+00  0.0000000000E+00  8.6677639235E+00
           xangst3     0.0000000000E+00  0.0000000000E+00  0.0000000000E+00
                       2.2968407562E+00  1.4793678043E+00  2.2968407562E+00
                       1.4240158683E+00  0.0000000000E+00  1.4240158683E+00
                       3.1696656440E+00  0.0000000000E+00  3.1696656440E+00
                       8.7282488785E-01  1.4793678043E+00  3.7208566245E+00
                       3.7208566245E+00  1.4793678043E+00  8.7282488785E-01
                       8.7282488785E-01  0.0000000000E+00  6.1812131381E+00
                       1.9453612542E+00  1.3755961537E+00  7.5568092918E+00
                       1.9453612542E+00 -1.3755961537E+00  7.5568092918E+00
                       0.0000000000E+00  0.0000000000E+00  8.9323525278E+00
           xangst4     0.0000000000E+00  0.0000000000E+00  0.0000000000E+00
                       2.2968407562E+00  1.4793678043E+00  2.2968407562E+00
                       1.4240158683E+00  0.0000000000E+00  1.4240158683E+00
                       3.1696656440E+00  0.0000000000E+00  3.1696656440E+00
                       8.7282488785E-01  1.4793678043E+00  3.7208566245E+00
                       3.7208566245E+00  1.4793678043E+00  8.7282488785E-01
                       8.7282488785E-01  0.0000000000E+00  6.4458017424E+00
                       1.9453612542E+00  1.3755961537E+00  7.8213978961E+00
                       1.9453612542E+00 -1.3755961537E+00  7.8213978961E+00
                       0.0000000000E+00  0.0000000000E+00  9.1969411321E+00
           xangst5     0.0000000000E+00  0.0000000000E+00  0.0000000000E+00
                       2.2968407562E+00  1.4793678043E+00  2.2968407562E+00
                       1.4240158683E+00  0.0000000000E+00  1.4240158683E+00
                       3.1696656440E+00  0.0000000000E+00  3.1696656440E+00
                       8.7282488785E-01  1.4793678043E+00  3.7208566245E+00
                       3.7208566245E+00  1.4793678043E+00  8.7282488785E-01
                       8.7282488785E-01  0.0000000000E+00  6.7103903467E+00
                       1.9453612542E+00  1.3755961537E+00  8.0859865004E+00
                       1.9453612542E+00 -1.3755961537E+00  8.0859865004E+00
                       0.0000000000E+00  0.0000000000E+00  9.4615297364E+00
            xcart1     0.0000000000E+00  0.0000000000E+00  0.0000000000E+00
                       4.3404000000E+00  2.7956000000E+00  4.3404000000E+00
                       2.6910000000E+00  0.0000000000E+00  2.6910000000E+00
                       5.9898000000E+00  0.0000000000E+00  5.9898000000E+00
                       1.6494000000E+00  2.7956000000E+00  7.0314000000E+00
                       7.0314000000E+00  2.7956000000E+00  1.6494000000E+00
                       1.6494000000E+00  0.0000000000E+00  1.0680800000E+01
                       3.6762000000E+00  2.5995000000E+00  1.3280300000E+01
                       3.6762000000E+00 -2.5995000000E+00  1.3280300000E+01
                       0.0000000000E+00  0.0000000000E+00  1.5879700000E+01
            xcart2     0.0000000000E+00  0.0000000000E+00  0.0000000000E+00
                       4.3404000000E+00  2.7956000000E+00  4.3404000000E+00
                       2.6910000000E+00  0.0000000000E+00  2.6910000000E+00
                       5.9898000000E+00  0.0000000000E+00  5.9898000000E+00
                       1.6494000000E+00  2.7956000000E+00  7.0314000000E+00
                       7.0314000000E+00  2.7956000000E+00  1.6494000000E+00
                       1.6494000000E+00  0.0000000000E+00  1.1180800000E+01
                       3.6762000000E+00  2.5995000000E+00  1.3780300000E+01
                       3.6762000000E+00 -2.5995000000E+00  1.3780300000E+01
                       0.0000000000E+00  0.0000000000E+00  1.6379700000E+01
            xcart3     0.0000000000E+00  0.0000000000E+00  0.0000000000E+00
                       4.3404000000E+00  2.7956000000E+00  4.3404000000E+00
                       2.6910000000E+00  0.0000000000E+00  2.6910000000E+00
                       5.9898000000E+00  0.0000000000E+00  5.9898000000E+00
                       1.6494000000E+00  2.7956000000E+00  7.0314000000E+00
                       7.0314000000E+00  2.7956000000E+00  1.6494000000E+00
                       1.6494000000E+00  0.0000000000E+00  1.1680800000E+01
                       3.6762000000E+00  2.5995000000E+00  1.4280300000E+01
                       3.6762000000E+00 -2.5995000000E+00  1.4280300000E+01
                       0.0000000000E+00  0.0000000000E+00  1.6879700000E+01
            xcart4     0.0000000000E+00  0.0000000000E+00  0.0000000000E+00
                       4.3404000000E+00  2.7956000000E+00  4.3404000000E+00
                       2.6910000000E+00  0.0000000000E+00  2.6910000000E+00
                       5.9898000000E+00  0.0000000000E+00  5.9898000000E+00
                       1.6494000000E+00  2.7956000000E+00  7.0314000000E+00
                       7.0314000000E+00  2.7956000000E+00  1.6494000000E+00
                       1.6494000000E+00  0.0000000000E+00  1.2180800000E+01
                       3.6762000000E+00  2.5995000000E+00  1.4780300000E+01
                       3.6762000000E+00 -2.5995000000E+00  1.4780300000E+01
                       0.0000000000E+00  0.0000000000E+00  1.7379700000E+01
            xcart5     0.0000000000E+00  0.0000000000E+00  0.0000000000E+00
                       4.3404000000E+00  2.7956000000E+00  4.3404000000E+00
                       2.6910000000E+00  0.0000000000E+00  2.6910000000E+00
                       5.9898000000E+00  0.0000000000E+00  5.9898000000E+00
                       1.6494000000E+00  2.7956000000E+00  7.0314000000E+00
                       7.0314000000E+00  2.7956000000E+00  1.6494000000E+00
                       1.6494000000E+00  0.0000000000E+00  1.2680800000E+01
                       3.6762000000E+00  2.5995000000E+00  1.5280300000E+01
                       3.6762000000E+00 -2.5995000000E+00  1.5280300000E+01
                       0.0000000000E+00  0.0000000000E+00  1.7879700000E+01
             xred1     0.0000000000E+00  0.0000000000E+00  0.0000000000E+00
                       5.0000000000E-01  3.2204405124E-01  1.7361600000E-01
                       3.0999447056E-01  0.0000000000E+00  1.0764000000E-01
                       6.9000552944E-01  0.0000000000E+00  2.3959200000E-01
                       1.9000552944E-01  3.2204405124E-01  2.8125600000E-01
                       8.0999447056E-01  3.2204405124E-01  6.5976000000E-02
                       1.9000552944E-01  0.0000000000E+00  4.2723200000E-01
                       4.2348631463E-01  2.9945396738E-01  5.3121200000E-01
                       4.2348631463E-01 -2.9945396738E-01  5.3121200000E-01
                       0.0000000000E+00  0.0000000000E+00  6.3518800000E-01
             xred2     0.0000000000E+00  0.0000000000E+00  0.0000000000E+00
                       5.0000000000E-01  3.2204405124E-01  1.7021176471E-01
                       3.0999447056E-01  0.0000000000E+00  1.0552941176E-01
                       6.9000552944E-01  0.0000000000E+00  2.3489411765E-01
                       1.9000552944E-01  3.2204405124E-01  2.7574117647E-01
                       8.0999447056E-01  3.2204405124E-01  6.4682352941E-02
                       1.9000552944E-01  0.0000000000E+00  4.3846274510E-01
                       4.2348631463E-01  2.9945396738E-01  5.4040392157E-01
                       4.2348631463E-01 -2.9945396738E-01  5.4040392157E-01
                       0.0000000000E+00  0.0000000000E+00  6.4234117647E-01
             xred3     0.0000000000E+00  0.0000000000E+00  0.0000000000E+00
                       5.0000000000E-01  3.2204405124E-01  1.6693846154E-01
                       3.0999447056E-01  0.0000000000E+00  1.0350000000E-01
                       6.9000552944E-01  0.0000000000E+00  2.3037692308E-01
                       1.9000552944E-01  3.2204405124E-01  2.7043846154E-01
                       8.0999447056E-01  3.2204405124E-01  6.3438461538E-02
                       1.9000552944E-01  0.0000000000E+00  4.4926153846E-01
                       4.2348631463E-01  2.9945396738E-01  5.4924230769E-01
                       4.2348631463E-01 -2.9945396738E-01  5.4924230769E-01
                       0.0000000000E+00  0.0000000000E+00  6.4921923077E-01
             xred4     0.0000000000E+00  0.0000000000E+00  0.0000000000E+00
                       5.0000000000E-01  3.2204405124E-01  1.6378867925E-01
                       3.0999447056E-01  0.0000000000E+00  1.0154716981E-01
                       6.9000552944E-01  0.0000000000E+00  2.2603018868E-01
                       1.9000552944E-01  3.2204405124E-01  2.6533584906E-01
                       8.0999447056E-01  3.2204405124E-01  6.2241509434E-02
                       1.9000552944E-01  0.0000000000E+00  4.5965283019E-01
                       4.2348631463E-01  2.9945396738E-01  5.5774716981E-01
                       4.2348631463E-01 -2.9945396738E-01  5.5774716981E-01
                       0.0000000000E+00  0.0000000000E+00  6.5583773585E-01
             xred5     0.0000000000E+00  0.0000000000E+00  0.0000000000E+00
                       5.0000000000E-01  3.2204405124E-01  1.6075555556E-01
                       3.0999447056E-01  0.0000000000E+00  9.9666666667E-02
                       6.9000552944E-01  0.0000000000E+00  2.2184444444E-01
                       1.9000552944E-01  3.2204405124E-01  2.6042222222E-01
                       8.0999447056E-01  3.2204405124E-01  6.1088888889E-02
                       1.9000552944E-01  0.0000000000E+00  4.6965925926E-01
                       4.2348631463E-01  2.9945396738E-01  5.6593703704E-01
                       4.2348631463E-01 -2.9945396738E-01  5.6593703704E-01
                       0.0000000000E+00  0.0000000000E+00  6.6221111111E-01
            znucl       22.00000    8.00000   46.00000

 Suggested references for the acknowledgment of ABINIT usage.

 Calculation completed.
.Delivered   4 WARNINGs and  10 COMMENTs to log file.

--- !FinalSummary
program: abinit
version: 8.6.3
start_datetime: Thu Apr 26 17:39:10 2018
end_datetime: Thu Apr 26 20:24:24 2018
overall_cpu_time:        9887.1
overall_wall_time:        9914.4
exit_requested_by_user: no
timelimit: 0
pseudos:
    Ti  : ea4ed3d71d7ed9998c7c8ddd5e23a4a6
    O   : abbcf0645b4a6d69360cd16bcad3e730
    Pd  : 4144628137bc01fa80f914e5e2c5b797
usepaw: 0
mpi_procs: 1
omp_threads: 1
num_warnings: 4
num_comments: 10
...