.Version 8.6.3 of ABINIT
.(sequential version, prepared for a x86_64_linux_gnu5.4 computer)

 ABINIT is a project of the Universite Catholique de Louvain,
 Corning Inc. and other collaborators, see ~abinit/doc/developers/contributors.txt .
 Please read ~abinit/doc/users/acknowledgments.html for suggested
 acknowledgments of the ABINIT effort.

.Starting date : Thu 26 Apr 2018.
- ( at 17h39 )

- input  file    -> manualGeomOpt3.in
- output file    -> manualGeomOpt3.out
- root for input  files -> manualGeomOpt3_i
- root for output files -> manualGeomOpt3_o

 DATASET    1 : space group P1 (#  1); Bravais aP (primitive triclinic)
     intxc =       0    ionmov =       0      iscf =       7    lmnmax =       6
     lnmax =       6     mgfft =     180  mpssoang =       3    mqgrid =    8718
     natom =      10  nloc_mem =       1    nspden =       1   nspinor =       1
    nsppol =       1      nsym =       1    n1xccc =    2501    ntypat =       3
    occopt =       1   xclevel =       2
-    mband =          62        mffmem =           1         mkmem =           2
       mpw =       41884          nfft =      737280          nkpt =           2
  Rough estimation (10% accuracy) of disk space for files :

[...]

 DATASET    5 : space group P1 (#  1); Bravais aP (primitive triclinic)
     intxc =       0    ionmov =       0      iscf =       7    lmnmax =       6
     lnmax =       6     mgfft =     192  mpssoang =       3    mqgrid =    9415
     natom =      10  nloc_mem =       1    nspden =       1   nspinor =       1
    nsppol =       1      nsym =       1    n1xccc =    2501    ntypat =       3
    occopt =       1   xclevel =       2
-    mband =          62        mffmem =           1         mkmem =           2
       mpw =       45244          nfft =      786432          nkpt =           2
  Rough estimation (10% accuracy) of disk space for files :

------------- Echo of variables that govern the present computation ------------
-
- outvars: echo of selected default values
-   iomode0 =  0 , fftalg0 =112 , wfoptalg0 =  0
-
- outvars: echo of global parameters not present in the input file
-  max_nthreads =    0
-
 -outvars: echo values of preprocessed input variables --------
            acell1     8.6808000000E+00  8.6808000000E+00  2.5000000000E+01 Bohr
            acell2     8.6808000000E+00  8.6808000000E+00  2.5500000000E+01 Bohr
            acell3     8.6808000000E+00  8.6808000000E+00  2.6000000000E+01 Bohr
            acell4     8.6808000000E+00  8.6808000000E+00  2.6500000000E+01 Bohr
            acell5     8.6808000000E+00  8.6808000000E+00  2.7000000000E+01 Bohr
              amu      4.78800000E+01  1.59994000E+01  1.06420000E+02
           diemac      1.20000000E+01
             ecut      6.00000000E+01 Hartree
-          fftalg         112
              ixc          11
           jdtset        1    2    3    4    5
              kpt      1.25000000E-01  5.00000000E-01  5.00000000E-01
                       3.75000000E-01  5.00000000E-01  5.00000000E-01
           kptopt           2
         kptrlatt        4    0    0      0    1    0      0    0    1
          kptrlen      8.68080000E+00
P           mkmem           2
            natom          10
            nband          62
           ndtset           5
            ngfft1         64      64     180
            ngfft2         64      64     180
            ngfft3         64      64     192
            ngfft4         64      64     192
            ngfft5         64      64     192
             nkpt           2
            nstep          50
             nsym           1
           ntypat           3
              occ      2.000000  2.000000  2.000000  2.000000  2.000000  2.000000
                       2.000000  2.000000  2.000000  2.000000  2.000000  2.000000
                       2.000000  2.000000  2.000000  2.000000  2.000000  2.000000
                       2.000000  2.000000  2.000000  2.000000  2.000000  2.000000
                       2.000000  2.000000  2.000000  2.000000  2.000000  2.000000
                       2.000000  2.000000  2.000000  2.000000  2.000000  2.000000
                       2.000000  2.000000  2.000000  2.000000  2.000000  2.000000
                       2.000000  2.000000  2.000000  2.000000  2.000000  2.000000
                       2.000000  2.000000  2.000000  2.000000  2.000000  2.000000
                       2.000000  2.000000  2.000000  2.000000  2.000000  2.000000
                       0.000000  0.000000
           shiftk      5.00000000E-01  5.00000000E-01  5.00000000E-01
          spgroup           1
           toldfe      1.00000000E-04 Hartree
            typat      1  1  2  2  2  2  3  3  3  3
              wtk        0.50000    0.50000
           xangst1     0.0000000000E+00  0.0000000000E+00  0.0000000000E+00
                       2.2968407562E+00  1.4793678043E+00  2.2968407562E+00
                       1.4240158683E+00  0.0000000000E+00  1.4240158683E+00
                       3.1696656440E+00  0.0000000000E+00  3.1696656440E+00
                       8.7282488785E-01  1.4793678043E+00  3.7208566245E+00
                       3.7208566245E+00  1.4793678043E+00  8.7282488785E-01
                       8.7282488785E-01  0.0000000000E+00  5.6520359295E+00
                       1.9453612542E+00  1.3755961537E+00  7.0276320832E+00
                       1.9453612542E+00 -1.3755961537E+00  7.0276320832E+00
                       0.0000000000E+00  0.0000000000E+00  8.4031753192E+00
           xangst2     0.0000000000E+00  0.0000000000E+00  0.0000000000E+00
                       2.2968407562E+00  1.4793678043E+00  2.2968407562E+00
                       1.4240158683E+00  0.0000000000E+00  1.4240158683E+00
                       3.1696656440E+00  0.0000000000E+00  3.1696656440E+00
                       8.7282488785E-01  1.4793678043E+00  3.7208566245E+00
                       3.7208566245E+00  1.4793678043E+00  8.7282488785E-01
                       8.7282488785E-01  0.0000000000E+00  5.9166245338E+00
                       1.9453612542E+00  1.3755961537E+00  7.2922206875E+00
                       1.9453612542E+00 -1.3755961537E+00  7.2922206875E+00
                       0.0000000000E+00  0.0000000000E+00  8.6677639235E+00
           xangst3     0.0000000000E+00  0.0000000000E+00  0.0000000000E+00
                       2.2968407562E+00  1.4793678043E+00  2.2968407562E+00
                       1.4240158683E+00  0.0000000000E+00  1.4240158683E+00
                       3.1696656440E+00  0.0000000000E+00  3.1696656440E+00
                       8.7282488785E-01  1.4793678043E+00  3.7208566245E+00
                       3.7208566245E+00  1.4793678043E+00  8.7282488785E-01
                       8.7282488785E-01  0.0000000000E+00  6.1812131381E+00
                       1.9453612542E+00  1.3755961537E+00  7.5568092918E+00
                       1.9453612542E+00 -1.3755961537E+00  7.5568092918E+00
                       0.0000000000E+00  0.0000000000E+00  8.9323525278E+00
           xangst4     0.0000000000E+00  0.0000000000E+00  0.0000000000E+00
                       2.2968407562E+00  1.4793678043E+00  2.2968407562E+00
                       1.4240158683E+00  0.0000000000E+00  1.4240158683E+00
                       3.1696656440E+00  0.0000000000E+00  3.1696656440E+00
                       8.7282488785E-01  1.4793678043E+00  3.7208566245E+00
                       3.7208566245E+00  1.4793678043E+00  8.7282488785E-01
                       8.7282488785E-01  0.0000000000E+00  6.4458017424E+00
                       1.9453612542E+00  1.3755961537E+00  7.8213978961E+00
                       1.9453612542E+00 -1.3755961537E+00  7.8213978961E+00
                       0.0000000000E+00  0.0000000000E+00  9.1969411321E+00
           xangst5     0.0000000000E+00  0.0000000000E+00  0.0000000000E+00
                       2.2968407562E+00  1.4793678043E+00  2.2968407562E+00
                       1.4240158683E+00  0.0000000000E+00  1.4240158683E+00
                       3.1696656440E+00  0.0000000000E+00  3.1696656440E+00
                       8.7282488785E-01  1.4793678043E+00  3.7208566245E+00
                       3.7208566245E+00  1.4793678043E+00  8.7282488785E-01
                       8.7282488785E-01  0.0000000000E+00  6.7103903467E+00
                       1.9453612542E+00  1.3755961537E+00  8.0859865004E+00
                       1.9453612542E+00 -1.3755961537E+00  8.0859865004E+00
                       0.0000000000E+00  0.0000000000E+00  9.4615297364E+00
            xcart1     0.0000000000E+00  0.0000000000E+00  0.0000000000E+00
                       4.3404000000E+00  2.7956000000E+00  4.3404000000E+00
                       2.6910000000E+00  0.0000000000E+00  2.6910000000E+00
                       5.9898000000E+00  0.0000000000E+00  5.9898000000E+00
                       1.6494000000E+00  2.7956000000E+00  7.0314000000E+00
                       7.0314000000E+00  2.7956000000E+00  1.6494000000E+00
                       1.6494000000E+00  0.0000000000E+00  1.0680800000E+01
                       3.6762000000E+00  2.5995000000E+00  1.3280300000E+01
                       3.6762000000E+00 -2.5995000000E+00  1.3280300000E+01
                       0.0000000000E+00  0.0000000000E+00  1.5879700000E+01
            xcart2     0.0000000000E+00  0.0000000000E+00  0.0000000000E+00
                       4.3404000000E+00  2.7956000000E+00  4.3404000000E+00
                       2.6910000000E+00  0.0000000000E+00  2.6910000000E+00
                       5.9898000000E+00  0.0000000000E+00  5.9898000000E+00
                       1.6494000000E+00  2.7956000000E+00  7.0314000000E+00
                       7.0314000000E+00  2.7956000000E+00  1.6494000000E+00
                       1.6494000000E+00  0.0000000000E+00  1.1180800000E+01
                       3.6762000000E+00  2.5995000000E+00  1.3780300000E+01
                       3.6762000000E+00 -2.5995000000E+00  1.3780300000E+01
                       0.0000000000E+00  0.0000000000E+00  1.6379700000E+01
            xcart3     0.0000000000E+00  0.0000000000E+00  0.0000000000E+00
                       4.3404000000E+00  2.7956000000E+00  4.3404000000E+00
                       2.6910000000E+00  0.0000000000E+00  2.6910000000E+00
                       5.9898000000E+00  0.0000000000E+00  5.9898000000E+00
                       1.6494000000E+00  2.7956000000E+00  7.0314000000E+00
                       7.0314000000E+00  2.7956000000E+00  1.6494000000E+00
                       1.6494000000E+00  0.0000000000E+00  1.1680800000E+01
                       3.6762000000E+00  2.5995000000E+00  1.4280300000E+01
                       3.6762000000E+00 -2.5995000000E+00  1.4280300000E+01
                       0.0000000000E+00  0.0000000000E+00  1.6879700000E+01
            xcart4     0.0000000000E+00  0.0000000000E+00  0.0000000000E+00
                       4.3404000000E+00  2.7956000000E+00  4.3404000000E+00
                       2.6910000000E+00  0.0000000000E+00  2.6910000000E+00
                       5.9898000000E+00  0.0000000000E+00  5.9898000000E+00
[...]
          kptrlen      8.68080000E+00
P           mkmem           2
            natom          10
            nband          62
           ndtset           5
            ngfft1         64      64     180
            ngfft2         64      64     180
            ngfft3         64      64     192
            ngfft4         64      64     192
            ngfft5         64      64     192
             nkpt           2
            nstep          50
             nsym           1
           ntypat           3
              occ      2.000000  2.000000  2.000000  2.000000  2.000000  2.000000
                       2.000000  2.000000  2.000000  2.000000  2.000000  2.000000
                       2.000000  2.000000  2.000000  2.000000  2.000000  2.000000
                       2.000000  2.000000  2.000000  2.000000  2.000000  2.000000
                       2.000000  2.000000  2.000000  2.000000  2.000000  2.000000
                       2.000000  2.000000  2.000000  2.000000  2.000000  2.000000
                       2.000000  2.000000  2.000000  2.000000  2.000000  2.000000
                       2.000000  2.000000  2.000000  2.000000  2.000000  2.000000
                       2.000000  2.000000  2.000000  2.000000  2.000000  2.000000
                       2.000000  2.000000  2.000000  2.000000  2.000000  2.000000
                       0.000000  0.000000
           shiftk      5.00000000E-01  5.00000000E-01  5.00000000E-01
          spgroup           1
           strten1    -5.0467244549E-04 -1.4327990794E-03 -4.2934346205E-04
                       1.1930311905E-04 -1.5599779275E-04  1.4633746985E-05
           strten2     2.8466444251E-04 -7.6696471592E-04  3.7316721668E-04
                      -2.5713168558E-05 -1.4173824116E-04 -8.2392749282E-05
           strten3     2.5644915093E-04 -8.0779468817E-04  3.8202841534E-04
                      -1.8042195276E-05 -1.4185982349E-04 -7.5023041133E-05
           strten4     2.8514589117E-04 -7.4638614322E-04  3.1999007326E-04
                      -7.5625046194E-06 -1.3099706706E-04 -7.7506222509E-05
           strten5     2.7334856709E-04 -7.6172961797E-04  3.4702652284E-04
                      -9.0155695395E-06 -1.3130732070E-04 -8.9006511685E-05
           toldfe      1.00000000E-04 Hartree
            typat      1  1  2  2  2  2  3  3  3  3
              wtk        0.50000    0.50000
           xangst1     0.0000000000E+00  0.0000000000E+00  0.0000000000E+00
                       2.2968407562E+00  1.4793678043E+00  2.2968407562E+00
                       1.4240158683E+00  0.0000000000E+00  1.4240158683E+00
                       3.1696656440E+00  0.0000000000E+00  3.1696656440E+00
                       8.7282488785E-01  1.4793678043E+00  3.7208566245E+00
                       3.7208566245E+00  1.4793678043E+00  8.7282488785E-01
                       8.7282488785E-01  0.0000000000E+00  5.6520359295E+00
                       1.9453612542E+00  1.3755961537E+00  7.0276320832E+00
                       1.9453612542E+00 -1.3755961537E+00  7.0276320832E+00
                       0.0000000000E+00  0.0000000000E+00  8.4031753192E+00
           xangst2     0.0000000000E+00  0.0000000000E+00  0.0000000000E+00
                       2.2968407562E+00  1.4793678043E+00  2.2968407562E+00
                       1.4240158683E+00  0.0000000000E+00  1.4240158683E+00
                       3.1696656440E+00  0.0000000000E+00  3.1696656440E+00
                       8.7282488785E-01  1.4793678043E+00  3.7208566245E+00
                       3.7208566245E+00  1.4793678043E+00  8.7282488785E-01
                       8.7282488785E-01  0.0000000000E+00  5.9166245338E+00
                       1.9453612542E+00  1.3755961537E+00  7.2922206875E+00
                       1.9453612542E+00 -1.3755961537E+00  7.2922206875E+00
                       0.0000000000E+00  0.0000000000E+00  8.6677639235E+00
           xangst3     0.0000000000E+00  0.0000000000E+00  0.0000000000E+00
                       2.2968407562E+00  1.4793678043E+00  2.2968407562E+00
                       1.4240158683E+00  0.0000000000E+00  1.4240158683E+00
                       3.1696656440E+00  0.0000000000E+00  3.1696656440E+00
                       8.7282488785E-01  1.4793678043E+00  3.7208566245E+00
                       3.7208566245E+00  1.4793678043E+00  8.7282488785E-01
                       8.7282488785E-01  0.0000000000E+00  6.1812131381E+00
                       1.9453612542E+00  1.3755961537E+00  7.5568092918E+00
                       1.9453612542E+00 -1.3755961537E+00  7.5568092918E+00
                       0.0000000000E+00  0.0000000000E+00  8.9323525278E+00
           xangst4     0.0000000000E+00  0.0000000000E+00  0.0000000000E+00
                       2.2968407562E+00  1.4793678043E+00  2.2968407562E+00
                       1.4240158683E+00  0.0000000000E+00  1.4240158683E+00
                       3.1696656440E+00  0.0000000000E+00  3.1696656440E+00
                       8.7282488785E-01  1.4793678043E+00  3.7208566245E+00
                       3.7208566245E+00  1.4793678043E+00  8.7282488785E-01
                       8.7282488785E-01  0.0000000000E+00  6.4458017424E+00
                       1.9453612542E+00  1.3755961537E+00  7.8213978961E+00
                       1.9453612542E+00 -1.3755961537E+00  7.8213978961E+00
                       0.0000000000E+00  0.0000000000E+00  9.1969411321E+00
           xangst5     0.0000000000E+00  0.0000000000E+00  0.0000000000E+00
                       2.2968407562E+00  1.4793678043E+00  2.2968407562E+00
                       1.4240158683E+00  0.0000000000E+00  1.4240158683E+00
                       3.1696656440E+00  0.0000000000E+00  3.1696656440E+00
                       8.7282488785E-01  1.4793678043E+00  3.7208566245E+00
                       3.7208566245E+00  1.4793678043E+00  8.7282488785E-01
                       8.7282488785E-01  0.0000000000E+00  6.7103903467E+00
                       1.9453612542E+00  1.3755961537E+00  8.0859865004E+00
                       1.9453612542E+00 -1.3755961537E+00  8.0859865004E+00
                       0.0000000000E+00  0.0000000000E+00  9.4615297364E+00
            xcart1     0.0000000000E+00  0.0000000000E+00  0.0000000000E+00
                       4.3404000000E+00  2.7956000000E+00  4.3404000000E+00
                       2.6910000000E+00  0.0000000000E+00  2.6910000000E+00
                       5.9898000000E+00  0.0000000000E+00  5.9898000000E+00
                       1.6494000000E+00  2.7956000000E+00  7.0314000000E+00
                       7.0314000000E+00  2.7956000000E+00  1.6494000000E+00
                       1.6494000000E+00  0.0000000000E+00  1.0680800000E+01
                       3.6762000000E+00  2.5995000000E+00  1.3280300000E+01
                       3.6762000000E+00 -2.5995000000E+00  1.3280300000E+01
                       0.0000000000E+00  0.0000000000E+00  1.5879700000E+01
            xcart2     0.0000000000E+00  0.0000000000E+00  0.0000000000E+00
                       4.3404000000E+00  2.7956000000E+00  4.3404000000E+00
                       2.6910000000E+00  0.0000000000E+00  2.6910000000E+00
                       5.9898000000E+00  0.0000000000E+00  5.9898000000E+00
                       1.6494000000E+00  2.7956000000E+00  7.0314000000E+00
                       7.0314000000E+00  2.7956000000E+00  1.6494000000E+00
                       1.6494000000E+00  0.0000000000E+00  1.1180800000E+01
                       3.6762000000E+00  2.5995000000E+00  1.3780300000E+01
                       3.6762000000E+00 -2.5995000000E+00  1.3780300000E+01
                       0.0000000000E+00  0.0000000000E+00  1.6379700000E+01
            xcart3     0.0000000000E+00  0.0000000000E+00  0.0000000000E+00
                       4.3404000000E+00  2.7956000000E+00  4.3404000000E+00
                       2.6910000000E+00  0.0000000000E+00  2.6910000000E+00
                       5.9898000000E+00  0.0000000000E+00  5.9898000000E+00
                       1.6494000000E+00  2.7956000000E+00  7.0314000000E+00
                       7.0314000000E+00  2.7956000000E+00  1.6494000000E+00
                       1.6494000000E+00  0.0000000000E+00  1.1680800000E+01
                       3.6762000000E+00  2.5995000000E+00  1.4280300000E+01
                       3.6762000000E+00 -2.5995000000E+00  1.4280300000E+01
                       0.0000000000E+00  0.0000000000E+00  1.6879700000E+01
            xcart4     0.0000000000E+00  0.0000000000E+00  0.0000000000E+00
                       4.3404000000E+00  2.7956000000E+00  4.3404000000E+00
                       2.6910000000E+00  0.0000000000E+00  2.6910000000E+00
                       5.9898000000E+00  0.0000000000E+00  5.9898000000E+00
                       1.6494000000E+00  2.7956000000E+00  7.0314000000E+00
                       7.0314000000E+00  2.7956000000E+00  1.6494000000E+00
                       1.6494000000E+00  0.0000000000E+00  1.2180800000E+01
                       3.6762000000E+00  2.5995000000E+00  1.4780300000E+01
                       3.6762000000E+00 -2.5995000000E+00  1.4780300000E+01
                       0.0000000000E+00  0.0000000000E+00  1.7379700000E+01
            xcart5     0.0000000000E+00  0.0000000000E+00  0.0000000000E+00
                       4.3404000000E+00  2.7956000000E+00  4.3404000000E+00
                       2.6910000000E+00  0.0000000000E+00  2.6910000000E+00
                       5.9898000000E+00  0.0000000000E+00  5.9898000000E+00
                       1.6494000000E+00  2.7956000000E+00  7.0314000000E+00
                       7.0314000000E+00  2.7956000000E+00  1.6494000000E+00
                       1.6494000000E+00  0.0000000000E+00  1.2680800000E+01
                       3.6762000000E+00  2.5995000000E+00  1.5280300000E+01
                       3.6762000000E+00 -2.5995000000E+00  1.5280300000E+01
                       0.0000000000E+00  0.0000000000E+00  1.7879700000E+01
             xred1     0.0000000000E+00  0.0000000000E+00  0.0000000000E+00
                       5.0000000000E-01  3.2204405124E-01  1.7361600000E-01
                       3.0999447056E-01  0.0000000000E+00  1.0764000000E-01
                       6.9000552944E-01  0.0000000000E+00  2.3959200000E-01
                       1.9000552944E-01  3.2204405124E-01  2.8125600000E-01
                       8.0999447056E-01  3.2204405124E-01  6.5976000000E-02
                       1.9000552944E-01  0.0000000000E+00  4.2723200000E-01
                       4.2348631463E-01  2.9945396738E-01  5.3121200000E-01
                       4.2348631463E-01 -2.9945396738E-01  5.3121200000E-01
                       0.0000000000E+00  0.0000000000E+00  6.3518800000E-01
             xred2     0.0000000000E+00  0.0000000000E+00  0.0000000000E+00
                       5.0000000000E-01  3.2204405124E-01  1.7021176471E-01
                       3.0999447056E-01  0.0000000000E+00  1.0552941176E-01
                       6.9000552944E-01  0.0000000000E+00  2.3489411765E-01
                       1.9000552944E-01  3.2204405124E-01  2.7574117647E-01
                       8.0999447056E-01  3.2204405124E-01  6.4682352941E-02
                       1.9000552944E-01  0.0000000000E+00  4.3846274510E-01
                       4.2348631463E-01  2.9945396738E-01  5.4040392157E-01
                       4.2348631463E-01 -2.9945396738E-01  5.4040392157E-01
                       0.0000000000E+00  0.0000000000E+00  6.4234117647E-01
             xred3     0.0000000000E+00  0.0000000000E+00  0.0000000000E+00
                       5.0000000000E-01  3.2204405124E-01  1.6693846154E-01
                       3.0999447056E-01  0.0000000000E+00  1.0350000000E-01
                       6.9000552944E-01  0.0000000000E+00  2.3037692308E-01
                       1.9000552944E-01  3.2204405124E-01  2.7043846154E-01
                       8.0999447056E-01  3.2204405124E-01  6.3438461538E-02
                       1.9000552944E-01  0.0000000000E+00  4.4926153846E-01
                       4.2348631463E-01  2.9945396738E-01  5.4924230769E-01
                       4.2348631463E-01 -2.9945396738E-01  5.4924230769E-01
                       0.0000000000E+00  0.0000000000E+00  6.4921923077E-01
             xred4     0.0000000000E+00  0.0000000000E+00  0.0000000000E+00
                       5.0000000000E-01  3.2204405124E-01  1.6378867925E-01
                       3.0999447056E-01  0.0000000000E+00  1.0154716981E-01
                       6.9000552944E-01  0.0000000000E+00  2.2603018868E-01
                       1.9000552944E-01  3.2204405124E-01  2.6533584906E-01
                       8.0999447056E-01  3.2204405124E-01  6.2241509434E-02
                       1.9000552944E-01  0.0000000000E+00  4.5965283019E-01
                       4.2348631463E-01  2.9945396738E-01  5.5774716981E-01
                       4.2348631463E-01 -2.9945396738E-01  5.5774716981E-01
                       0.0000000000E+00  0.0000000000E+00  6.5583773585E-01
             xred5     0.0000000000E+00  0.0000000000E+00  0.0000000000E+00
                       5.0000000000E-01  3.2204405124E-01  1.6075555556E-01
                       3.0999447056E-01  0.0000000000E+00  9.9666666667E-02
                       6.9000552944E-01  0.0000000000E+00  2.2184444444E-01
                       1.9000552944E-01  3.2204405124E-01  2.6042222222E-01
                       8.0999447056E-01  3.2204405124E-01  6.1088888889E-02
                       1.9000552944E-01  0.0000000000E+00  4.6965925926E-01
                       4.2348631463E-01  2.9945396738E-01  5.6593703704E-01
                       4.2348631463E-01 -2.9945396738E-01  5.6593703704E-01
                       0.0000000000E+00  0.0000000000E+00  6.6221111111E-01
            znucl       22.00000    8.00000   46.00000

-
-  as well as % of the time and number of calls for node 0-
-<BEGIN_TIMER mpi_nprocs = 1, omp_nthreads = 1, mpi_rank = 0>
- cpu_time =         9887.0, wall_time =         9914.4
-
-                                                                  (-1=no count)
- projbd                      2749.125  27.8   2752.488  27.8         254148      -1.00        1.00       1.00
- fourwf%(pot)                2700.828  27.3   2715.526  27.4         159314      -1.00        0.99       0.99
- nonlop(apply)               2693.094  27.2   2696.834  27.2         159314      -1.00        1.00       1.00
- vtowfk(ssdiag)               491.688   5.0    493.052   5.0             -1      -1.00        1.00       1.00
- fourwf%(den)                 297.797   3.0    298.297   3.0          30000      -1.00        1.00       1.00
- xc:pot/=fourdp                64.984   0.7     65.248   0.7            255      -1.00        1.00       1.00
- fourdp                        57.969   0.6     58.246   0.6           3055      -1.00        1.00       1.00
- getghc-other                  54.453   0.6     55.741   0.6             -1      -1.00        0.98       0.98
- others (105)                  78.500   0.8     79.781   0.8             -1      -1.00        0.98       0.98
-<END_TIMER>
-
- subtotal                    9188.438  92.9   9215.213  92.9                                  1.00       1.00

- as well as % of the total time and number of calls

-<BEGIN_TIMER mpi_nprocs = 1, omp_nthreads = 1, mpi_rank = world>
- cpu_time =        9887.0, wall_time =        9914.4
-
-                                                                  (-1=no count)
- projbd                      2749.125  27.8   2752.488  27.8         254148      -1.00        1.00       1.00
- fourwf%(pot)                2700.828  27.3   2715.526  27.4         159314      -1.00        0.99       0.99
- nonlop(apply)               2693.094  27.2   2696.834  27.2         159314      -1.00        1.00       1.00
- vtowfk(ssdiag)               491.688   5.0    493.052   5.0             -1      -1.00        1.00       1.00
- fourwf%(den)                 297.797   3.0    298.297   3.0          30000      -1.00        1.00       1.00
- xc:pot/=fourdp                64.984   0.7     65.248   0.7            255      -1.00        1.00       1.00
- fourdp                        57.969   0.6     58.246   0.6           3055      -1.00        1.00       1.00
- getghc-other                  54.453   0.6     55.741   0.6             -1      -1.00        0.98       0.98
- others (105)                  78.500   0.8     79.781   0.8             -1      -1.00        0.98       0.98
-<END_TIMER>

- subtotal                    9188.438  92.9   9215.213  92.9                                  1.00       1.00

 Suggested references for the acknowledgment of ABINIT usage.

 Calculation completed.
.Delivered   4 WARNINGs and  10 COMMENTs to log file.