.Version 8.6.3 of ABINIT
.(sequential version, prepared for a x86_64_linux_gnu5.4 computer)

 ABINIT is a project of the Universite Catholique de Louvain,
 Corning Inc. and other collaborators, see ~abinit/doc/developers/contributors.txt .
 Please read ~abinit/doc/users/acknowledgments.html for suggested
 acknowledgments of the ABINIT effort.

.Starting date : Sat 21 Apr 2018.
- ( at 12h36 )

 === Build Information ===
  Version       : 8.6.3
  Build target  : x86_64_linux_gnu5.4
  Build date    : 20180412

 === Optimizations ===
  Debug level        : basic
  Optimization level : standard
  Architecture       : unknown_unknown

 === Multicore ===
  Parallel build : no
  Parallel I/O   : no
  openMP support : no
  GPU support    : no

 === Connectors / Fallbacks ===
  Connectors on : yes
  Fallbacks on  : yes
  DFT flavor    : none
  FFT flavor    : none
  LINALG flavor : netlib-fallback
  MATH flavor   : none
  TIMER flavor  : abinit
  TRIO flavor   : none

 === Experimental features ===
  Bindings            : @enable_bindings@
  Exports             : no
  GW double-precision : no

 Default optimizations:
   -O2 -mtune=native -march=native

 Optimizations for 20_datashare:
   -O0

 CPP options activated during the build:

                    CC_GNU                   CXX_GNU                    FC_GNU

 HAVE_FC_ALLOCATABLE_DT...             HAVE_FC_ASYNC         HAVE_FC_BACKTRACE

  HAVE_FC_COMMAND_ARGUMENT      HAVE_FC_COMMAND_LINE        HAVE_FC_CONTIGUOUS

           HAVE_FC_CPUTIME              HAVE_FC_EXIT             HAVE_FC_FLUSH

             HAVE_FC_GAMMA            HAVE_FC_GETENV   HAVE_FC_IEEE_EXCEPTIONS

          HAVE_FC_INT_QUAD             HAVE_FC_IOMSG     HAVE_FC_ISO_C_BINDING

  HAVE_FC_ISO_FORTRAN_2008        HAVE_FC_LONG_LINES        HAVE_FC_MOVE_ALLOC

           HAVE_FC_PRIVATE         HAVE_FC_PROTECTED         HAVE_FC_STREAM_IO

            HAVE_FC_SYSTEM          HAVE_FORTRAN2003        HAVE_LIBPAW_ABINIT

      HAVE_LIBTETRA_ABINIT             HAVE_OS_LINUX         HAVE_TIMER_ABINIT

              USE_MACROAVE

- input  file    -> RutileDOS.in
- output file    -> RutileDOS.out
- root for input  files -> RutileDOS_i
- root for output files -> RutileDOS_o

-instrng: 92 lines of input have been read from file RutileDOS.in

 Please give name of formatted atomic psp file
 iofn2 : for atom type 1, psp file is ../../../Psps_for_tests/22ti.pspnc

 Please give name of formatted atomic psp file
 iofn2 : for atom type 2, psp file is ../../../Psps_for_tests/8o.pspnc
  read the values zionpsp=  4.0 , pspcod=   1 , lmax=   2
  read the values zionpsp=  6.0 , pspcod=   1 , lmax=   1

 inpspheads: deduce mpsang = 3, n1xccc = 2501.
 invars1 : treat image number: 1

 symlatt : the Bravais lattice is tP (primitive tetragonal)
  xcart  is defined in input file
 ingeo : takes atomic coordinates from input array xcart
 symfind : exit, nsym=8
   symrel matrices, symafm and tnons are :
   1       1   0   0     0   1   0     0   0   1       1      0.0000  0.0000  0.0000
   2      -1   0   0     0   1   0     0   0  -1       1      0.5000  0.5000 -0.5000
   3      -1   0   0     0  -1   0     0   0   1       1      0.0000  0.0000  0.0000
   4       1   0   0     0  -1   0     0   0  -1       1      0.5000  0.5000 -0.5000
   5       0   1   0     1   0   0     0   0   1       1      0.0000  0.0000  0.0000
   6       0  -1   0     1   0   0     0   0  -1       1      0.5000  0.5000 -0.5000
   7       0  -1   0    -1   0   0     0   0   1       1      0.0000  0.0000  0.0000
   8       0   1   0    -1   0   0     0   0  -1       1      0.5000  0.5000 -0.5000

 symlatt : the Bravais lattice is tP (primitive tetragonal)

 symlatt : the Bravais lattice is tP (primitive tetragonal)
 symspgr : spgroup= 113  P-4 2_1 m   (=D2d^3)
 symspgr : optical characteristics = uniaxial
 Optical axis (in reduced coordinates, real space ) :   0   0   1
 ingeo : angdeg(1:3)=   90.00000000   90.00000000   90.00000000
 invars2: take the default value of fband=  1.25000000E-01
 chkneu : initialized the occupation numbers for occopt=    1, spin-unpolarized or antiferromagnetic case :
  2.00  2.00  2.00  2.00  2.00  2.00  2.00  2.00  2.00  2.00  2.00  2.00
  2.00  2.00  2.00  2.00  0.00
mpi_setup: mkmem  undefined in the input file.Use default mkmem  = nkpt
 mpi_setup: With nkpt_me=8 and mkmem  = 8, ground state wf handled in core.
mpi_setup: mkqmem undefined in the input file.Use default mkqmem = nkpt
 mpi_setup: With nkpt_me=8 and mkqmem = 8, ground state wf handled in core.
mpi_setup: mk1mem undefined in the input file.Use default mk1mem = nkpt
 mpi_setup: With nkpt_me=8 and mk1mem = 8, ground state wf handled in core.
 For input ecut=  1.152000E+01 best grid ngfft=      30      30      18
       max ecut=  1.278675E+01

 ==== FFT mesh ====
  FFT mesh divisions ........................    30   30   18
  Augmented FFT divisions ...................    31   31   18
  FFT algorithm .............................   112
  FFT cache size ............................    16
 getmpw: optimal value of mpw= 794

 Symmetries : space group P-4 2_1 m (#113); Bravais tP (primitive tetrag.)

 getdim_nloc : deduce lmnmax  =   8, lnmax  =   2,
                      lmnmaxso=   8, lnmaxso=   2.
     intxc =       0    ionmov =       2      iscf =       7    lmnmax =       2
     lnmax =       2     mgfft =      30  mpssoang =       3    mqgrid =    3001
     natom =       6  nloc_mem =       1    nspden =       1   nspinor =       1
    nsppol =       1      nsym =       8    n1xccc =    2501    ntypat =       2
    occopt =       1   xclevel =       1
-    mband =          17        mffmem =           1         mkmem =           8
       mpw =         794          nfft =       16200          nkpt =           8
  Rough estimation (10% accuracy) of disk space for files :

 The job will continue.
------------- Echo of variables that govern the present computation ------------
-
- outvars: echo of selected default values
-   iomode0 =  0 , fftalg0 =112 , wfoptalg0 =  0
-
- outvars: echo of global parameters not present in the input file
-  max_nthreads =    0
-
 -outvars: echo values of preprocessed input variables --------
            acell      8.6808000000E+00  8.6808000000E+00  5.5911000000E+00 Bohr
              amu      4.78800000E+01  1.59994000E+01
           diemac      1.20000000E+01
          dilatmx      1.20000000E+00
             ecut      8.00000000E+00 Hartree
           ecutsm      5.00000000E-01 Hartree
-          fftalg         112
           getwfk          -1
           ionmov           2
              kpt      0.00000000E+00  2.50000000E-01  0.00000000E+00
                       2.50000000E-01  5.00000000E-01  0.00000000E+00
                       0.00000000E+00  0.00000000E+00  2.50000000E-01
                       0.00000000E+00  5.00000000E-01  2.50000000E-01
                       2.50000000E-01  2.50000000E-01  2.50000000E-01
                       5.00000000E-01  5.00000000E-01  2.50000000E-01
                       0.00000000E+00  2.50000000E-01  5.00000000E-01
                       2.50000000E-01  5.00000000E-01  5.00000000E-01
         kptrlatt        2   -2   -2      2    2   -2      0    0    4
          kptrlen      2.23644000E+01
P           mkmem           8
            natom           6
            nband          17
            ngfft          30      30      18
             nkpt           8
            nstep          10
             nsym           8
            ntime          10
           ntypat           2
              occ      2.000000  2.000000  2.000000  2.000000  2.000000  2.000000
                       2.000000  2.000000  2.000000  2.000000  2.000000  2.000000
                       2.000000  2.000000  2.000000  2.000000  0.000000
          optcell           1
           prtdos           2
           shiftk     -5.00000000E-01 -5.00000000E-01  1.00000000E+00
          spgroup         113
           symrel      1  0  0   0  1  0   0  0  1      -1  0  0   0  1  0   0  0 -1
                      -1  0  0   0 -1  0   0  0  1       1  0  0   0 -1  0   0  0 -1
                       0  1  0   1  0  0   0  0  1       0 -1  0   1  0  0   0  0 -1
                       0 -1  0  -1  0  0   0  0  1       0  1  0  -1  0  0   0  0 -1
            tnons      0.0000000  0.0000000  0.0000000     0.5000000  0.5000000 -0.4999911
                       0.0000000  0.0000000  0.0000000     0.5000000  0.5000000 -0.4999911
                       0.0000000  0.0000000  0.0000000     0.5000000  0.5000000 -0.4999911
                       0.0000000  0.0000000  0.0000000     0.5000000  0.5000000 -0.4999911
           toldfe      1.00000000E-04 Hartree
            typat      1  1  2  2  2  2
              wtk        0.12500    0.12500    0.06250    0.12500    0.25000    0.06250
                         0.12500    0.12500
           xangst      0.0000000000E+00  0.0000000000E+00  0.0000000000E+00
                       2.2968407562E+00  2.2968407562E+00  1.4793678043E+00
                       1.4240158683E+00  1.4240158683E+00  0.0000000000E+00
                       3.1696656440E+00  3.1696656440E+00  0.0000000000E+00
                       8.7282488785E-01  3.7208566245E+00  1.4793678043E+00
                       3.7208566245E+00  8.7282488785E-01  1.4793678043E+00
            xcart      0.0000000000E+00  0.0000000000E+00  0.0000000000E+00
                       4.3404000000E+00  4.3404000000E+00  2.7956000000E+00
                       2.6910000000E+00  2.6910000000E+00  0.0000000000E+00
                       5.9898000000E+00  5.9898000000E+00  0.0000000000E+00
                       1.6494000000E+00  7.0314000000E+00  2.7956000000E+00
                       7.0314000000E+00  1.6494000000E+00  2.7956000000E+00
             xred      0.0000000000E+00  0.0000000000E+00  0.0000000000E+00
                       5.0000000000E-01  5.0000000000E-01  5.0000894278E-01
                       3.0999447056E-01  3.0999447056E-01  0.0000000000E+00
                       6.9000552944E-01  6.9000552944E-01  0.0000000000E+00
                       1.9000552944E-01  8.0999447056E-01  5.0000894278E-01
                       8.0999447056E-01  1.9000552944E-01  5.0000894278E-01
            znucl       22.00000    8.00000

 chkinp: Checking input parameters for consistency.

 chkinp: WARNING -
   Chksymbreak=1 . Found potentially symmetry-breaking value of tnons,
   which is neither a rational fraction in 1/8th nor in 1/12th :
   for the symmetry number    2
   symrel is  -1  0  0  0  1  0  0  0 -1
   tnons is     5.000000E-01    5.000000E-01   -4.999911E-01
   Please, read the description of the input variable chksymbreak,
   then, if you feel confident, you might switch it to zero, or consult with the forum.

[...]

 chkinp: WARNING -
   Chksymbreak=1 . Found potentially symmetry-breaking value of tnons,
   which is neither a rational fraction in 1/8th nor in 1/12th :
   for the symmetry number    6
   symrel is   0 -1  0  1  0  0  0  0 -1
   tnons is     5.000000E-01    5.000000E-01   -4.999911E-01
   Please, read the description of the input variable chksymbreak,
[...]
     eigenvalues (hartree) for   17  bands
              after    2 non-SCF iterations with    4 CG line minimizations
 -9.2178E-01 -9.2178E-01 -9.1658E-01 -9.1658E-01 -2.0588E-01 -2.0588E-01
 -1.4214E-01 -1.4214E-01 -9.0919E-02 -9.0919E-02 -8.3264E-02 -8.3264E-02
 -3.1708E-02 -3.1708E-02 -2.9238E-02 -2.9238E-02  1.7695E-01
 non-scf iterations; kpt #     7  , k= (  0.00000  0.25000  0.50000  ), band residuals:
 res:  4.66E-11  2.17E-10  6.70E-12  5.01E-12  1.69E-11  3.91E-11  8.81E-11  3.35E-11
 res:  8.83E-12  1.00E-11  2.92E-11  1.73E-11  3.32E-11  2.51E-11  1.79E-11  1.73E-11
 res:  3.45E-10
 ene: -9.20E-01 -9.20E-01 -9.16E-01 -9.16E-01 -1.89E-01 -1.89E-01 -1.60E-01 -1.60E-01
 ene: -1.23E-01 -1.23E-01 -8.51E-02 -8.51E-02 -4.41E-02 -4.41E-02 -3.34E-02 -3.34E-02
 ene:  2.16E-01
 vtowfk : number of one-way 3D ffts skipped in vtowfk until now =343
     eigenvalues (hartree) for   17  bands
              after    2 non-SCF iterations with    4 CG line minimizations
 -9.1962E-01 -9.1962E-01 -9.1577E-01 -9.1577E-01 -1.8894E-01 -1.8894E-01
 -1.6022E-01 -1.6022E-01 -1.2331E-01 -1.2331E-01 -8.5140E-02 -8.5140E-02
 -4.4149E-02 -4.4149E-02 -3.3433E-02 -3.3433E-02  2.1614E-01
 non-scf iterations; kpt #     8  , k= (  0.25000  0.50000  0.50000  ), band residuals:
 res:  7.45E-11  1.49E-10  8.86E-12  7.75E-12  1.14E-11  1.17E-11  3.04E-11  2.39E-11
 res:  2.51E-11  1.96E-11  1.48E-11  1.48E-11  3.91E-11  3.29E-11  1.78E-11  1.78E-11
 res:  2.66E-10
 ene: -9.19E-01 -9.19E-01 -9.16E-01 -9.16E-01 -2.09E-01 -2.09E-01 -1.63E-01 -1.63E-01
 ene: -1.13E-01 -1.13E-01 -7.70E-02 -7.70E-02 -3.42E-02 -3.42E-02 -1.81E-02 -1.81E-02
 ene:  1.80E-01
 vtowfk : number of one-way 3D ffts skipped in vtowfk until now =344
     eigenvalues (hartree) for   17  bands
              after    2 non-SCF iterations with    4 CG line minimizations
 -9.1919E-01 -9.1919E-01 -9.1615E-01 -9.1615E-01 -2.0909E-01 -2.0909E-01
 -1.6282E-01 -1.6282E-01 -1.1290E-01 -1.1290E-01 -7.6965E-02 -7.6965E-02
 -3.4176E-02 -3.4176E-02 -1.8086E-02 -1.8086E-02  1.7959E-01
 Total charge density [el/Bohr^3]
      Maximum=    5.4423E-01  at reduced coord.    0.6667    0.7333    0.0000
      Minimum=    1.3580E-03  at reduced coord.    0.5000    0.5000    0.5000
   Integrated=    3.2000E+01
 ETOT  3  -68.828546810532    -4.878E-08 4.132E-10 6.863E-08
 scprqt: <Vxc>= -3.8008333E-01 hartree

 At SCF step    3, etot is converged :
  for the second time, diff in etot=  4.878E-08 < toldfe=  1.000E-04

[...]

 fftdatar_write: About to write data to: RutileDOS_o_TIM9_DEN with iomode IO_MODE_FORTRAN
 tetrahedron : integrate to  3.40000000E+01

---OUTPUT-----------------------------------------------------------------------

 Cartesian coordinates (xcart) [bohr]
 -1.04076508664623E-18 -1.70156840884126E-20  3.64579774637215E-05
  4.92999903859943E+00  4.92999903859943E+00  3.17531726801752E+00
  2.96065184281280E+00  2.96065184281280E+00  2.78329359159576E-05
  6.89934623438608E+00  6.89934623438608E+00  2.78329359159576E-05
  1.96934719578664E+00  7.89065088141222E+00  3.17532589305905E+00
  7.89065088141222E+00  1.96934719578664E+00  3.17532589305905E+00
 Reduced coordinates (xred)
 -1.05554289006708E-19 -1.72572894590732E-21  5.74087687253448E-06
  5.00000000000000E-01  5.00000000000000E-01  5.00003201907196E-01
  3.00269008130871E-01  3.00269008130871E-01  4.38272963039856E-06
  6.99730991869130E-01  6.99730991869130E-01  4.38272963039856E-06
  1.99730991869129E-01  8.00269008130870E-01  5.00004560054436E-01
  8.00269008130870E-01  1.99730991869129E-01  5.00004560054436E-01
 Cartesian forces (fcart) [Ha/bohr]; max,rms= 4.97727E-06 3.33175E-06 (free atoms)
 -2.82344315911446E-22 -3.20024770408523E-31 -8.98656402362587E-07
 -2.82344316071458E-22 -3.20024770408523E-31  8.98656402362587E-07
  4.97727039825970E-06  4.97727039825970E-06  4.67837144749447E-08
 -4.97727039825970E-06 -4.97727039825970E-06  4.67837144749447E-08
 -4.97727039825970E-06  4.97727039825970E-06 -4.67837144749448E-08
  4.97727039825970E-06 -4.97727039825970E-06 -4.67837144749448E-08
 Reduced forces (fred)
  2.78391441199489E-21  3.15544362088405E-30  5.70700183829233E-06
  2.78391441357261E-21  3.15544362088405E-30 -5.70700183829233E-06
 -4.90758765565395E-05 -4.90758765565395E-05 -2.97104370267343E-07
  4.90758765565395E-05  4.90758765565395E-05 -2.97104370267343E-07
  4.90758765565395E-05 -4.90758765565395E-05  2.97104370267344E-07
 -4.90758765565395E-05  4.90758765565395E-05  2.97104370267344E-07
 Scale of Primitive Cell (acell) [bohr]
  9.85999807719887E+00  9.85999807719887E+00  6.35059386801062E+00
 Real space primitive translations (rprimd) [bohr]
  9.85999807719887E+00  0.00000000000000E+00  0.00000000000000E+00
  0.00000000000000E+00  9.85999807719887E+00  0.00000000000000E+00
  0.00000000000000E+00  0.00000000000000E+00  6.35059386801062E+00
 Unitary Cell Volume (ucvol) [Bohr^3]=  6.17401954810947E+02
 Angles (23,13,12)= [degrees]
  9.00000000000000E+01  9.00000000000000E+01  9.00000000000000E+01
 Lengths [Bohr]
  9.85999807719887E+00  9.85999807719887E+00  6.35059386801062E+00
 Stress tensor in cartesian coordinates (strten) [Ha/bohr^3]
  2.52720551554569E-04  0.00000000000000E+00  0.00000000000000E+00
  0.00000000000000E+00  2.52720551554569E-04  0.00000000000000E+00
  0.00000000000000E+00  0.00000000000000E+00 -5.04897019831353E-04
 Total energy (etotal) [Ha]= -6.88285468105323E+01

 Difference of energy with previous step (new-old):
           Absolute (Ha)=-1.80956E-08
           Relative     =-2.62909E-10

 At Broyd/MD step   9, gradients are converged :
  max grad (force/stress) = 1.8136E-05 < tolmxf= 5.0000E-05 ha/bohr (free atoms)

 Geometry Optimization Precondition:           0

 ----iterations are completed or convergence reached----

 === Gap info ===
  >>>> For spin  1
   Minimum optical gap =   1.2989 [eV], located at k-point      :   0.0000  0.2500  0.0000
   Fundamental gap     =   1.2989 [eV], Top of valence bands at :   0.0000  0.2500  0.0000
                                        Bottom of conduction at :   0.0000  0.2500  0.0000
 Mean square residual over all n,k,spin=   6.7161E-11; max=  4.1325E-10
   0.0000  0.2500  0.0000    1  3.89946E-10 kpt; spin; max resid(k); each band:
  3.65E-10 4.18E-11 1.32E-11 6.14E-12 3.20E-11 7.65E-11 3.21E-11 1.65E-11
  5.45E-11 2.51E-12 2.38E-10 1.29E-11 1.22E-11 1.13E-11 2.35E-11 6.54E-11
  3.90E-10
   0.2500  0.5000  0.0000    1  3.72452E-10 kpt; spin; max resid(k); each band:
  9.28E-11 2.86E-10 2.68E-11 2.92E-11 9.77E-11 8.06E-11 1.11E-10 6.47E-11
  3.55E-11 3.39E-11 6.61E-12 6.61E-12 1.54E-11 1.54E-11 4.61E-11 4.69E-11
  3.72E-10
   0.0000  0.0000  0.2500    1  4.13248E-10 kpt; spin; max resid(k); each band:
  3.44E-10 7.06E-12 7.06E-12 1.50E-11 1.29E-11 1.64E-11 2.19E-10 7.82E-11
  1.63E-11 1.63E-11 1.01E-11 9.25E-12 9.25E-12 1.78E-11 1.78E-11 3.32E-12
  4.13E-10
   0.0000  0.5000  0.2500    1  3.87347E-10 kpt; spin; max resid(k); each band:
  2.02E-10 1.50E-10 6.05E-12 6.05E-12 1.06E-10 7.73E-11 3.30E-11 3.80E-11
  3.99E-11 3.07E-11 1.61E-11 1.62E-11 2.23E-11 2.08E-11 2.81E-11 2.61E-11
  3.87E-10
   0.2500  0.2500  0.2500    1  3.81524E-10 kpt; spin; max resid(k); each band:
  3.10E-10 3.08E-11 1.65E-11 7.66E-12 3.29E-11 9.78E-11 1.13E-10 2.36E-11
  2.15E-11 3.65E-12 1.46E-11 1.61E-11 2.17E-11 3.57E-11 1.70E-11 1.23E-11
  3.82E-10
   0.5000  0.5000  0.2500    1  3.51971E-10 kpt; spin; max resid(k); each band:
  2.30E-10 6.84E-11 2.69E-11 2.69E-11 1.07E-10 5.29E-11 2.72E-11 2.72E-11
  3.93E-12 3.93E-12 2.91E-11 5.98E-11 8.39E-12 8.39E-12 2.28E-11 2.27E-11
  3.52E-10
   0.0000  0.2500  0.5000    1  3.44568E-10 kpt; spin; max resid(k); each band:
  4.66E-11 2.17E-10 6.70E-12 5.01E-12 1.69E-11 3.91E-11 8.81E-11 3.35E-11
  8.83E-12 1.00E-11 2.92E-11 1.73E-11 3.32E-11 2.51E-11 1.79E-11 1.73E-11
  3.45E-10
   0.2500  0.5000  0.5000    1  2.65901E-10 kpt; spin; max resid(k); each band:
  7.45E-11 1.49E-10 8.86E-12 7.75E-12 1.14E-11 1.17E-11 3.04E-11 2.39E-11
  2.51E-11 1.96E-11 1.48E-11 1.48E-11 3.91E-11 3.29E-11 1.78E-11 1.78E-11
  2.66E-10

 outwf: write wavefunction to file RutileDOS_o_WFK, with iomode -1
 prteigrs : about to open file RutileDOS_o_EIG
 Fermi (or HOMO) energy (hartree) =   0.00795   Average Vxc (hartree)=  -0.38008
 Eigenvalues (hartree) for nkpt=   8  k points:
 kpt#   1, nband= 17, wtk=  0.12500, kpt=  0.0000  0.2500  0.0000 (reduced coord)
  -0.93159   -0.91999   -0.91606   -0.91452   -0.23292   -0.15865   -0.12952   -0.10800
  -0.08452   -0.07818   -0.06883   -0.06038   -0.04820   -0.02941   -0.01838    0.00795
   0.05568
 kpt#   2, nband= 17, wtk=  0.12500, kpt=  0.2500  0.5000  0.0000 (reduced coord)
  -0.92525   -0.92525   -0.91605   -0.91605   -0.20156   -0.20156   -0.12033   -0.12033
  -0.07496   -0.07496   -0.06633   -0.06633   -0.04350   -0.04350   -0.02222   -0.02222
   0.13904
 kpt#   3, nband= 17, wtk=  0.06250, kpt=  0.0000  0.0000  0.2500 (reduced coord)
  -0.92894   -0.91593   -0.91593   -0.91580   -0.22484   -0.13669   -0.13008   -0.12205
  -0.11641   -0.11641   -0.10589   -0.09473   -0.09473   -0.03017   -0.03017    0.00478
   0.10329
 kpt#   4, nband= 17, wtk=  0.12500, kpt=  0.0000  0.5000  0.2500 (reduced coord)
  -0.92308   -0.92308   -0.91525   -0.91525   -0.18967   -0.18967   -0.15127   -0.15127
  -0.10909   -0.10909   -0.07306   -0.07306   -0.04801   -0.04801   -0.01603   -0.01603
   0.17219
 kpt#   5, nband= 17, wtk=  0.25000, kpt=  0.2500  0.2500  0.2500 (reduced coord)
  -0.92586   -0.91939   -0.91625   -0.91517   -0.21245   -0.17884   -0.14370   -0.13465
  -0.12290   -0.09610   -0.08586   -0.07037   -0.06998   -0.02831   -0.02654   -0.00109
   0.13211
 kpt#   6, nband= 17, wtk=  0.06250, kpt=  0.5000  0.5000  0.2500 (reduced coord)
  -0.92178   -0.92178   -0.91658   -0.91658   -0.20588   -0.20588   -0.14214   -0.14214
  -0.09092   -0.09092   -0.08326   -0.08326   -0.03171   -0.03171   -0.02924   -0.02924
   0.17695
 kpt#   7, nband= 17, wtk=  0.12500, kpt=  0.0000  0.2500  0.5000 (reduced coord)
  -0.91962   -0.91962   -0.91577   -0.91577   -0.18894   -0.18894   -0.16022   -0.16022
  -0.12331   -0.12331   -0.08514   -0.08514   -0.04415   -0.04415   -0.03343   -0.03343
   0.21614
 kpt#   8, nband= 17, wtk=  0.12500, kpt=  0.2500  0.5000  0.5000 (reduced coord)
  -0.91919   -0.91919   -0.91615   -0.91615   -0.20909   -0.20909   -0.16282   -0.16282
  -0.11290   -0.11290   -0.07697   -0.07697   -0.03418   -0.03418   -0.01809   -0.01809
   0.17959
 Total charge density [el/Bohr^3]
      Maximum=    5.4423E-01  at reduced coord.    0.6667    0.7333    0.0000
 Next maximum=    5.4423E-01  at reduced coord.    0.7333    0.6667    0.0000
      Minimum=    1.3580E-03  at reduced coord.    0.5000    0.5000    0.5000
 Next minimum=    1.3580E-03  at reduced coord.    0.0000    0.0000    0.0000
   Integrated=    3.2000E+01

 Cartesian components of stress tensor (hartree/bohr^3)
  sigma(1 1)=  2.52720552E-04  sigma(3 2)=  0.00000000E+00
  sigma(2 2)=  2.52720552E-04  sigma(3 1)=  0.00000000E+00
  sigma(3 3)= -5.04897020E-04  sigma(2 1)=  0.00000000E+00

-Cartesian components of stress tensor (GPa)         [Pressure= -5.3358E-03 GPa]
- sigma(1 1)=  7.43529408E+00  sigma(3 2)=  0.00000000E+00
- sigma(2 2)=  7.43529408E+00  sigma(3 1)=  0.00000000E+00
- sigma(3 3)= -1.48545807E+01  sigma(2 1)=  0.00000000E+00

== END DATASET(S) ==============================================================

 -outvars: echo values of variables after computation  --------
            acell      9.8599980772E+00  9.8599980772E+00  6.3505938680E+00 Bohr
              amu      4.78800000E+01  1.59994000E+01
           diemac      1.20000000E+01
          dilatmx      1.20000000E+00
             ecut      8.00000000E+00 Hartree
           ecutsm      5.00000000E-01 Hartree
           etotal     -6.8828546811E+01
            fcart     -2.8234431591E-22 -3.2002477041E-31 -8.9865640236E-07
                      -2.8234431607E-22 -3.2002477041E-31  8.9865640236E-07
                       4.9772703983E-06  4.9772703983E-06  4.6783714475E-08
                      -4.9772703983E-06 -4.9772703983E-06  4.6783714475E-08
                      -4.9772703983E-06  4.9772703983E-06 -4.6783714475E-08
                       4.9772703983E-06 -4.9772703983E-06 -4.6783714475E-08
-          fftalg         112
           getwfk          -1
           ionmov           2
              kpt      0.00000000E+00  2.50000000E-01  0.00000000E+00
                       2.50000000E-01  5.00000000E-01  0.00000000E+00
                       0.00000000E+00  0.00000000E+00  2.50000000E-01
                       0.00000000E+00  5.00000000E-01  2.50000000E-01
                       2.50000000E-01  2.50000000E-01  2.50000000E-01
                       5.00000000E-01  5.00000000E-01  2.50000000E-01
                       0.00000000E+00  2.50000000E-01  5.00000000E-01
                       2.50000000E-01  5.00000000E-01  5.00000000E-01
         kptrlatt        2   -2   -2      2    2   -2      0    0    4
          kptrlen      2.23644000E+01
P           mkmem           8
            natom           6
            nband          17
            ngfft          30      30      18
             nkpt           8
            nstep          10
             nsym           8
            ntime          10
           ntypat           2
              occ      2.000000  2.000000  2.000000  2.000000  2.000000  2.000000
                       2.000000  2.000000  2.000000  2.000000  2.000000  2.000000
                       2.000000  2.000000  2.000000  2.000000  0.000000
          optcell           1
           prtdos           2
           shiftk     -5.00000000E-01 -5.00000000E-01  1.00000000E+00
          spgroup         113
           strten      2.5272055155E-04  2.5272055155E-04 -5.0489701983E-04
                       0.0000000000E+00  0.0000000000E+00  0.0000000000E+00
           symrel      1  0  0   0  1  0   0  0  1      -1  0  0   0  1  0   0  0 -1
                      -1  0  0   0 -1  0   0  0  1       1  0  0   0 -1  0   0  0 -1
                       0  1  0   1  0  0   0  0  1       0 -1  0   1  0  0   0  0 -1
                       0 -1  0  -1  0  0   0  0  1       0  1  0  -1  0  0   0  0 -1
            tnons      0.0000000  0.0000000  0.0000000     0.5000000  0.5000000 -0.4999911
                       0.0000000  0.0000000  0.0000000     0.5000000  0.5000000 -0.4999911
                       0.0000000  0.0000000  0.0000000     0.5000000  0.5000000 -0.4999911
                       0.0000000  0.0000000  0.0000000     0.5000000  0.5000000 -0.4999911
           toldfe      1.00000000E-04 Hartree
            typat      1  1  2  2  2  2
              wtk        0.12500    0.12500    0.06250    0.12500    0.25000    0.06250
                         0.12500    0.12500
           xangst     -5.5074916335E-19 -9.0043122082E-21  1.9292730745E-05
                       2.6088431296E+00  2.6088431296E+00  1.6803055283E+00
                       1.5667094778E+00  1.5667094778E+00  1.4728555335E-05
                       3.6509767814E+00  3.6509767814E+00  1.4728555335E-05
                       1.0421336518E+00  4.1755526074E+00  1.6803100925E+00
                       4.1755526074E+00  1.0421336518E+00  1.6803100925E+00
            xcart     -1.0407650866E-18 -1.7015684088E-20  3.6457977464E-05
                       4.9299990386E+00  4.9299990386E+00  3.1753172680E+00
                       2.9606518428E+00  2.9606518428E+00  2.7832935916E-05
                       6.8993462344E+00  6.8993462344E+00  2.7832935916E-05
                       1.9693471958E+00  7.8906508814E+00  3.1753258931E+00
                       7.8906508814E+00  1.9693471958E+00  3.1753258931E+00
             xred     -1.0555428901E-19 -1.7257289459E-21  5.7408768725E-06
                       5.0000000000E-01  5.0000000000E-01  5.0000320191E-01
                       3.0026900813E-01  3.0026900813E-01  4.3827296304E-06
                       6.9973099187E-01  6.9973099187E-01  4.3827296304E-06
                       1.9973099187E-01  8.0026900813E-01  5.0000456005E-01
                       8.0026900813E-01  1.9973099187E-01  5.0000456005E-01
            znucl       22.00000    8.00000

 Suggested references for the acknowledgment of ABINIT usage.

 Calculation completed.
.Delivered   4 WARNINGs and   9 COMMENTs to log file.

--- !FinalSummary
program: abinit
version: 8.6.3
start_datetime: Sat Apr 21 12:36:51 2018
end_datetime: Sat Apr 21 12:37:15 2018
overall_cpu_time:          23.5
overall_wall_time:          23.9
exit_requested_by_user: no
timelimit: 0
pseudos:
    Ti  : 9d5151159dba5b2d9be995f71cdbe165
    O   : f9a33d255b992d3a483d25bc79688495
usepaw: 0
mpi_procs: 1
omp_threads: 1
num_warnings: 4
num_comments: 9
...