.Version 8.6.3 of ABINIT
.(sequential version, prepared for a x86_64_linux_gnu5.4 computer)

 ABINIT is a project of the Universite Catholique de Louvain,
 Corning Inc. and other collaborators, see ~abinit/doc/developers/contributors.txt .
 Please read ~abinit/doc/users/acknowledgments.html for suggested
 acknowledgments of the ABINIT effort.

.Starting date : Fri 27 Apr 2018.
- ( at 21h50 )

 === Build Information ===
  Version       : 8.6.3
  Build target  : x86_64_linux_gnu5.4
  Build date    : 20180412

 === Optimizations ===
  Debug level        : basic
  Optimization level : standard
  Architecture       : unknown_unknown

 === Multicore ===
  Parallel build : no
  Parallel I/O   : no
  openMP support : no
  GPU support    : no

 === Connectors / Fallbacks ===
  Connectors on : yes
  Fallbacks on  : yes
  DFT flavor    : none
  FFT flavor    : none
  LINALG flavor : netlib-fallback
  MATH flavor   : none
  TIMER flavor  : abinit
  TRIO flavor   : none

 === Experimental features ===
  Bindings            : @enable_bindings@
  Exports             : no
  GW double-precision : no

 Default optimizations:
   -O2 -mtune=native -march=native

 Optimizations for 20_datashare:
   -O0

 CPP options activated during the build:

                    CC_GNU                   CXX_GNU                    FC_GNU

 HAVE_FC_ALLOCATABLE_DT...             HAVE_FC_ASYNC         HAVE_FC_BACKTRACE

  HAVE_FC_COMMAND_ARGUMENT      HAVE_FC_COMMAND_LINE        HAVE_FC_CONTIGUOUS

           HAVE_FC_CPUTIME              HAVE_FC_EXIT             HAVE_FC_FLUSH

             HAVE_FC_GAMMA            HAVE_FC_GETENV   HAVE_FC_IEEE_EXCEPTIONS

          HAVE_FC_INT_QUAD             HAVE_FC_IOMSG     HAVE_FC_ISO_C_BINDING

  HAVE_FC_ISO_FORTRAN_2008        HAVE_FC_LONG_LINES        HAVE_FC_MOVE_ALLOC

           HAVE_FC_PRIVATE         HAVE_FC_PROTECTED         HAVE_FC_STREAM_IO

            HAVE_FC_SYSTEM          HAVE_FORTRAN2003        HAVE_LIBPAW_ABINIT

      HAVE_LIBTETRA_ABINIT             HAVE_OS_LINUX         HAVE_TIMER_ABINIT

              USE_MACROAVE

- input  file    -> RutileDOS.in
- output file    -> RutileDOS.out
- root for input  files -> RutileDOS_i
- root for output files -> RutileDOS_o

-instrng: 80 lines of input have been read from file RutileDOS.in

 Please give name of formatted atomic psp file
 iofn2 : for atom type 1, psp file is ../../../Psps_for_tests/22ti.pspnc

 Please give name of formatted atomic psp file
 iofn2 : for atom type 2, psp file is ../../../Psps_for_tests/8o.pspnc
  read the values zionpsp=  4.0 , pspcod=   1 , lmax=   2
  read the values zionpsp=  6.0 , pspcod=   1 , lmax=   1

 inpspheads: deduce mpsang = 3, n1xccc = 2501.
 invars1 : treat image number: 1

 symlatt : the Bravais lattice is tP (primitive tetragonal)
  xcart  is defined in input file
 ingeo : takes atomic coordinates from input array xcart
 symfind : exit, nsym=8
   symrel matrices, symafm and tnons are :
   1       1   0   0     0   1   0     0   0   1       1      0.0000  0.0000  0.0000
   2       1   0   0     0  -1   0     0   0  -1       1      0.5000 -0.5000  0.5000
   3      -1   0   0     0   1   0     0   0  -1       1      0.0000  0.0000  0.0000
   4      -1   0   0     0  -1   0     0   0   1       1      0.5000 -0.5000  0.5000
   5       0   0   1     0   1   0     1   0   0       1      0.0000  0.0000  0.0000
   6       0   0   1     0  -1   0    -1   0   0       1      0.5000 -0.5000  0.5000
   7       0   0  -1     0   1   0    -1   0   0       1      0.0000  0.0000  0.0000
   8       0   0  -1     0  -1   0     1   0   0       1      0.5000 -0.5000  0.5000

 symlatt : the Bravais lattice is tP (primitive tetragonal)

 symlatt : the Bravais lattice is tP (primitive tetragonal)
 symspgr : spgroup= 113  P-4 2_1 m   (=D2d^3)
 symspgr : optical characteristics = uniaxial
 Optical axis (in reduced coordinates, real space ) :   0   1   0
 ingeo : angdeg(1:3)=   90.00000000   90.00000000   90.00000000
 invars2: take the default value of fband=  1.25000000E-01
 chkneu : initialized the occupation numbers for occopt=    1, spin-unpolarized or antiferromagnetic case :
  2.00  2.00  2.00  2.00  2.00  2.00  2.00  2.00  2.00  2.00  2.00  2.00
  2.00  2.00  2.00  2.00  0.00
mpi_setup: mkmem  undefined in the input file.Use default mkmem  = nkpt
 mpi_setup: With nkpt_me=8 and mkmem  = 8, ground state wf handled in core.
mpi_setup: mkqmem undefined in the input file.Use default mkqmem = nkpt
 mpi_setup: With nkpt_me=8 and mkqmem = 8, ground state wf handled in core.
mpi_setup: mk1mem undefined in the input file.Use default mk1mem = nkpt
 mpi_setup: With nkpt_me=8 and mk1mem = 8, ground state wf handled in core.
 For input ecut=  6.000000E+01 best grid ngfft=      64      40      64
       max ecut=  6.314446E+01

 ==== FFT mesh ====
  FFT mesh divisions ........................    64   40   64
  Augmented FFT divisions ...................    65   41   64
  FFT algorithm .............................   112
  FFT cache size ............................    16
 getmpw: optimal value of mpw= 9376

 Symmetries : space group P-4 2_1 m (#113); Bravais tP (primitive tetrag.)

 getdim_nloc : deduce lmnmax  =   8, lnmax  =   2,
                      lmnmaxso=   8, lnmaxso=   2.
     intxc =       0    ionmov =       0      iscf =       7    lmnmax =       2
     lnmax =       2     mgfft =      64  mpssoang =       3    mqgrid =    3027
     natom =       6  nloc_mem =       1    nspden =       1   nspinor =       1
    nsppol =       1      nsym =       8    n1xccc =    2501    ntypat =       2
    occopt =       1   xclevel =       2
-    mband =          17        mffmem =           1         mkmem =           8
       mpw =        9376          nfft =      163840          nkpt =           8
  Rough estimation (10% accuracy) of disk space for files :

 The job will continue.
------------- Echo of variables that govern the present computation ------------
-
- outvars: echo of selected default values
-   iomode0 =  0 , fftalg0 =112 , wfoptalg0 =  0
-
- outvars: echo of global parameters not present in the input file
-  max_nthreads =    0
-
 -outvars: echo values of preprocessed input variables --------
            acell      8.6808000000E+00  5.5911000000E+00  8.6808000000E+00 Bohr
              amu      4.78800000E+01  1.59994000E+01
           diemac      1.20000000E+01
             ecut      6.00000000E+01 Hartree
-          fftalg         112
           getwfk          -1
              ixc          11
              kpt     -2.50000000E-01  5.00000000E-01  0.00000000E+00
                       5.00000000E-01 -2.50000000E-01  0.00000000E+00
                      -2.50000000E-01 -2.50000000E-01  2.50000000E-01
                      -2.50000000E-01  0.00000000E+00  0.00000000E+00
                       5.00000000E-01  5.00000000E-01  2.50000000E-01
                       0.00000000E+00 -2.50000000E-01  0.00000000E+00
                       5.00000000E-01 -2.50000000E-01  5.00000000E-01
                       5.00000000E-01  0.00000000E+00  2.50000000E-01
         kptrlatt        2   -2    2      0    4    0     -2   -2    2
          kptrlen      2.23644000E+01
P           mkmem           8
            natom           6
            nband          17
            ngfft          64      40      64
             nkpt           8
            nstep          50
             nsym           8
           ntypat           2
              occ      2.000000  2.000000  2.000000  2.000000  2.000000  2.000000
                       2.000000  2.000000  2.000000  2.000000  2.000000  2.000000
                       2.000000  2.000000  2.000000  2.000000  0.000000
           prtdos           2
           shiftk      5.00000000E-01  0.00000000E+00  5.00000000E-01
          spgroup         113
           symrel      1  0  0   0  1  0   0  0  1       1  0  0   0 -1  0   0  0 -1
                      -1  0  0   0  1  0   0  0 -1      -1  0  0   0 -1  0   0  0  1
                       0  0  1   0  1  0   1  0  0       0  0  1   0 -1  0  -1  0  0
                       0  0 -1   0  1  0  -1  0  0       0  0 -1   0 -1  0   1  0  0
            tnons      0.0000000  0.0000000  0.0000000     0.5000000 -0.4999911  0.5000000
                       0.0000000  0.0000000  0.0000000     0.5000000 -0.4999911  0.5000000
                       0.0000000  0.0000000  0.0000000     0.5000000 -0.4999911  0.5000000
                       0.0000000  0.0000000  0.0000000     0.5000000 -0.4999911  0.5000000
           toldfe      1.00000000E-04 Hartree
            typat      1  1  2  2  2  2
              wtk        0.12500    0.12500    0.25000    0.12500    0.12500    0.06250
                         0.06250    0.12500
           xangst      0.0000000000E+00  0.0000000000E+00  0.0000000000E+00
                       2.2968407562E+00  1.4793678043E+00  2.2968407562E+00
                       3.1696656440E+00  0.0000000000E+00  1.4240158683E+00
                       1.4240158683E+00  0.0000000000E+00  3.1696656440E+00
                       8.7282488785E-01  1.4793678043E+00  8.7282488785E-01
                       3.7208566245E+00  1.4793678043E+00  3.7208566245E+00
            xcart      0.0000000000E+00  0.0000000000E+00  0.0000000000E+00
                       4.3404000000E+00  2.7956000000E+00  4.3404000000E+00
                       5.9898000000E+00  0.0000000000E+00  2.6910000000E+00
                       2.6910000000E+00  0.0000000000E+00  5.9898000000E+00
                       1.6494000000E+00  2.7956000000E+00  1.6494000000E+00
                       7.0314000000E+00  2.7956000000E+00  7.0314000000E+00
             xred      0.0000000000E+00  0.0000000000E+00  0.0000000000E+00
                       5.0000000000E-01  5.0000894278E-01  5.0000000000E-01
                       6.9000552944E-01  0.0000000000E+00  3.0999447056E-01
                       3.0999447056E-01  0.0000000000E+00  6.9000552944E-01
                       1.9000552944E-01  5.0000894278E-01  1.9000552944E-01
                       8.0999447056E-01  5.0000894278E-01  8.0999447056E-01
            znucl       22.00000    8.00000

 chkinp: Checking input parameters for consistency.

 chkinp: WARNING -
   Chksymbreak=1 . Found potentially symmetry-breaking value of tnons,
   which is neither a rational fraction in 1/8th nor in 1/12th :
   for the symmetry number    2
   symrel is   1  0  0  0 -1  0  0  0 -1
   tnons is     5.000000E-01   -4.999911E-01    5.000000E-01
   Please, read the description of the input variable chksymbreak,
   then, if you feel confident, you might switch it to zero, or consult with the forum.

[...]

 chkinp: WARNING -
   Chksymbreak=1 . Found potentially symmetry-breaking value of tnons,
   which is neither a rational fraction in 1/8th nor in 1/12th :
   for the symmetry number    6
   symrel is   0  0  1  0 -1  0 -1  0  0
   tnons is     5.000000E-01   -4.999911E-01    5.000000E-01
   Please, read the description of the input variable chksymbreak,
   then, if you feel confident, you might switch it to zero, or consult with the forum.

 chkinp: WARNING -
   Chksymbreak=1 . Found potentially symmetry-breaking value of tnons,
[...]
 res:  6.31E-11  8.39E-11  1.30E-10  1.64E-10  7.50E-10  1.18E-09  9.98E-10  1.63E-09
 res:  1.46E-09  3.32E-09  1.10E-09  1.47E-09  1.71E-09  3.55E-09  1.90E-09  1.98E-08
 res:  2.74E-04
 ene: -7.32E-01 -7.10E-01 -6.97E-01 -6.97E-01 -2.76E-01 -2.63E-01 -2.59E-01 -2.43E-01
 ene: -2.25E-01 -2.06E-01 -2.02E-01 -1.81E-01 -1.65E-01 -1.50E-01 -1.42E-01 -1.21E-01
 ene: -6.06E-03
 vtowfk : number of one-way 3D ffts skipped in vtowfk until now =75
     eigenvalues (hartree) for   17  bands
              after    2 non-SCF iterations with    4 CG line minimizations
 -7.3236E-01 -7.0971E-01 -6.9743E-01 -6.9706E-01 -2.7591E-01 -2.6294E-01
 -2.5901E-01 -2.4278E-01 -2.2493E-01 -2.0637E-01 -2.0213E-01 -1.8067E-01
 -1.6461E-01 -1.4976E-01 -1.4228E-01 -1.2091E-01 -6.0566E-03
 non-scf iterations; kpt #     4  , k= ( -0.25000  0.00000  0.00000  ), band residuals:
 res:  1.03E-10  1.27E-10  1.58E-10  5.29E-11  7.21E-10  8.85E-10  8.59E-10  1.30E-09
 res:  7.79E-10  8.83E-10  1.12E-09  3.91E-10  6.47E-09  6.98E-09  2.64E-07  3.73E-07
 res:  1.19E-04
 ene: -7.54E-01 -7.15E-01 -6.92E-01 -6.91E-01 -2.96E-01 -2.79E-01 -2.55E-01 -2.36E-01
 ene: -2.36E-01 -2.01E-01 -1.93E-01 -1.68E-01 -1.42E-01 -1.31E-01 -1.22E-01 -1.08E-01
 ene: -7.47E-03
 vtowfk : number of one-way 3D ffts skipped in vtowfk until now =76
     eigenvalues (hartree) for   17  bands
              after    2 non-SCF iterations with    4 CG line minimizations
 -7.5449E-01 -7.1491E-01 -6.9222E-01 -6.9131E-01 -2.9570E-01 -2.7897E-01
 -2.5502E-01 -2.3648E-01 -2.3619E-01 -2.0115E-01 -1.9304E-01 -1.6800E-01
 -1.4183E-01 -1.3128E-01 -1.2214E-01 -1.0774E-01 -7.4672E-03
 non-scf iterations; kpt #     5  , k= (  0.50000  0.50000  0.25000  ), band residuals:
 res:  1.46E-10  1.42E-10  6.93E-11  6.97E-11  6.86E-10  5.44E-10  6.96E-10  6.89E-10
 res:  2.11E-09  2.25E-09  1.12E-09  1.05E-09  1.84E-09  2.18E-09  9.17E-09  2.83E-08
 res:  6.53E-05
 ene: -7.06E-01 -7.06E-01 -7.02E-01 -7.02E-01 -2.79E-01 -2.79E-01 -2.51E-01 -2.51E-01
 ene: -2.19E-01 -2.19E-01 -1.97E-01 -1.97E-01 -1.52E-01 -1.52E-01 -1.29E-01 -1.29E-01
 ene: -1.41E-02
 vtowfk : number of one-way 3D ffts skipped in vtowfk until now =77
     eigenvalues (hartree) for   17  bands
              after    2 non-SCF iterations with    4 CG line minimizations
 -7.0575E-01 -7.0575E-01 -7.0238E-01 -7.0238E-01 -2.7857E-01 -2.7857E-01
 -2.5110E-01 -2.5110E-01 -2.1870E-01 -2.1870E-01 -1.9665E-01 -1.9665E-01
 -1.5163E-01 -1.5163E-01 -1.2866E-01 -1.2866E-01 -1.4144E-02
 non-scf iterations; kpt #     6  , k= (  0.00000 -0.25000  0.00000  ), band residuals:
 res:  1.15E-10  1.59E-10  1.20E-10  1.41E-10  5.40E-10  9.36E-10  1.12E-09  1.14E-09
 res:  9.59E-10  4.79E-10  1.24E-09  1.03E-09  1.54E-09  5.57E-09  6.11E-09  5.87E-08
 res:  2.32E-04
 ene: -7.43E-01 -7.01E-01 -6.95E-01 -6.95E-01 -2.81E-01 -2.64E-01 -2.46E-01 -2.46E-01
 ene: -2.44E-01 -2.22E-01 -1.85E-01 -1.68E-01 -1.68E-01 -1.44E-01 -1.44E-01 -1.13E-01
 ene: -9.36E-03
 vtowfk : number of one-way 3D ffts skipped in vtowfk until now =78
     eigenvalues (hartree) for   17  bands
              after    2 non-SCF iterations with    4 CG line minimizations
 -7.4305E-01 -7.0138E-01 -6.9503E-01 -6.9503E-01 -2.8077E-01 -2.6439E-01
 -2.4638E-01 -2.4638E-01 -2.4404E-01 -2.2165E-01 -1.8479E-01 -1.6780E-01
 -1.6780E-01 -1.4446E-01 -1.4446E-01 -1.1320E-01 -9.3627E-03
 non-scf iterations; kpt #     7  , k= (  0.50000 -0.25000  0.50000  ), band residuals:
 res:  8.75E-11  8.82E-11  1.23E-10  1.33E-10  8.17E-10  7.89E-10  1.00E-09  1.17E-09
 res:  2.09E-09  1.96E-09  4.90E-09  5.26E-09  4.63E-09  1.28E-08  1.36E-09  8.31E-09
 res:  3.87E-05
 ene: -7.19E-01 -7.19E-01 -7.00E-01 -7.00E-01 -2.76E-01 -2.76E-01 -2.67E-01 -2.67E-01
 ene: -1.98E-01 -1.98E-01 -1.64E-01 -1.64E-01 -1.58E-01 -1.58E-01 -1.47E-01 -1.47E-01
 ene:  1.22E-02
 vtowfk : number of one-way 3D ffts skipped in vtowfk until now =79
     eigenvalues (hartree) for   17  bands
              after    2 non-SCF iterations with    4 CG line minimizations
 -7.1873E-01 -7.1873E-01 -6.9976E-01 -6.9976E-01 -2.7582E-01 -2.7582E-01
 -2.6743E-01 -2.6743E-01 -1.9800E-01 -1.9800E-01 -1.6375E-01 -1.6375E-01
 -1.5835E-01 -1.5835E-01 -1.4731E-01 -1.4731E-01  1.2198E-02
 non-scf iterations; kpt #     8  , k= (  0.50000  0.00000  0.25000  ), band residuals:
 res:  6.18E-11  6.20E-11  7.01E-11  6.89E-11  8.03E-10  9.61E-10  1.26E-09  8.26E-10
 res:  1.05E-09  1.05E-09  2.91E-09  3.49E-09  1.45E-09  1.69E-09  6.36E-09  1.55E-08
 res:  1.60E-04
 ene: -7.34E-01 -7.34E-01 -6.94E-01 -6.94E-01 -2.87E-01 -2.87E-01 -2.38E-01 -2.38E-01
 ene: -2.13E-01 -2.13E-01 -1.73E-01 -1.73E-01 -1.49E-01 -1.49E-01 -1.33E-01 -1.33E-01
 ene: -1.99E-03
 vtowfk : number of one-way 3D ffts skipped in vtowfk until now =80
     eigenvalues (hartree) for   17  bands
              after    2 non-SCF iterations with    4 CG line minimizations
 -7.3374E-01 -7.3374E-01 -6.9431E-01 -6.9431E-01 -2.8715E-01 -2.8715E-01
 -2.3754E-01 -2.3754E-01 -2.1338E-01 -2.1338E-01 -1.7260E-01 -1.7260E-01
 -1.4896E-01 -1.4896E-01 -1.3349E-01 -1.3349E-01 -1.9941E-03
 Total charge density [el/Bohr^3]
      Maximum=    9.7349E-01  at reduced coord.    0.3594    0.0000    0.7188
      Minimum=    2.9756E-04  at reduced coord.    0.0000    0.0000    0.0000
   Integrated=    3.2000E+01
 ETOT 10  -75.124205135483    -1.041E-06 7.035E-04 4.060E-04
 scprqt: <Vxc>= -4.0654367E-01 hartree

 At SCF step   10, etot is converged :
  for the second time, diff in etot=  1.041E-06 < toldfe=  1.000E-04

 Cartesian components of stress tensor (hartree/bohr^3)
  sigma(1 1)= -1.52868468E-03  sigma(3 2)=  0.00000000E+00
  sigma(2 2)= -2.24503657E-03  sigma(3 1)=  0.00000000E+00
  sigma(3 3)= -1.52868468E-03  sigma(2 1)=  0.00000000E+00

 fftdatar_write: About to write data to: RutileDOS_o_DEN with iomode IO_MODE_FORTRAN
 tetrahedron : integrate to  3.40000000E+01

 ----iterations are completed or convergence reached----

 === Gap info ===
  >>>> For spin  1
   Minimum optical gap =   2.7285 [eV], located at k-point      :  -0.2500  0.0000  0.0000
   Fundamental gap     =   2.5468 [eV], Top of valence bands at :  -0.2500  0.0000  0.0000
                                        Bottom of conduction at :   0.5000  0.5000  0.2500
 Mean square residual over all n,k,spin=   1.2575E-05; max=  7.0350E-04
  -0.2500  0.5000  0.0000    1  1.16930E-04 kpt; spin; max resid(k); each band:
  1.46E-10 1.44E-10 1.44E-10 1.43E-10 6.92E-10 6.58E-10 1.09E-09 1.13E-09
  1.21E-09 1.17E-09 1.00E-09 1.29E-09 1.64E-09 1.26E-09 3.26E-09 3.90E-09
  1.17E-04
   0.5000 -0.2500  0.0000    1  7.03498E-04 kpt; spin; max resid(k); each band:
  2.42E-11 3.55E-11 1.74E-10 1.32E-10 8.51E-10 7.31E-10 1.76E-09 1.85E-09
  1.34E-09 1.47E-09 9.95E-10 1.06E-09 5.70E-09 4.27E-09 1.26E-09 2.01E-09
  7.03E-04
  -0.2500 -0.2500  0.2500    1  2.73705E-04 kpt; spin; max resid(k); each band:
  6.31E-11 8.39E-11 1.30E-10 1.64E-10 7.50E-10 1.18E-09 9.98E-10 1.63E-09
  1.46E-09 3.32E-09 1.10E-09 1.47E-09 1.71E-09 3.55E-09 1.90E-09 1.98E-08
  2.74E-04
  -0.2500  0.0000  0.0000    1  1.18882E-04 kpt; spin; max resid(k); each band:
  1.03E-10 1.27E-10 1.58E-10 5.29E-11 7.21E-10 8.85E-10 8.59E-10 1.30E-09
  7.79E-10 8.83E-10 1.12E-09 3.91E-10 6.47E-09 6.98E-09 2.64E-07 3.73E-07
  1.19E-04
   0.5000  0.5000  0.2500    1  6.53229E-05 kpt; spin; max resid(k); each band:
  1.46E-10 1.42E-10 6.93E-11 6.97E-11 6.86E-10 5.44E-10 6.96E-10 6.89E-10
  2.11E-09 2.25E-09 1.12E-09 1.05E-09 1.84E-09 2.18E-09 9.17E-09 2.83E-08
  6.53E-05
   0.0000 -0.2500  0.0000    1  2.31801E-04 kpt; spin; max resid(k); each band:
  1.15E-10 1.59E-10 1.20E-10 1.41E-10 5.40E-10 9.36E-10 1.12E-09 1.14E-09
  9.59E-10 4.79E-10 1.24E-09 1.03E-09 1.54E-09 5.57E-09 6.11E-09 5.87E-08
  2.32E-04
   0.5000 -0.2500  0.5000    1  3.87238E-05 kpt; spin; max resid(k); each band:
  8.75E-11 8.82E-11 1.23E-10 1.33E-10 8.17E-10 7.89E-10 1.00E-09 1.17E-09
  2.09E-09 1.96E-09 4.90E-09 5.26E-09 4.63E-09 1.28E-08 1.36E-09 8.31E-09
  3.87E-05
   0.5000  0.0000  0.2500    1  1.60428E-04 kpt; spin; max resid(k); each band:
  6.18E-11 6.20E-11 7.01E-11 6.89E-11 8.03E-10 9.61E-10 1.26E-09 8.26E-10
  1.05E-09 1.05E-09 2.91E-09 3.49E-09 1.45E-09 1.69E-09 6.36E-09 1.55E-08
  1.60E-04

 outwf: write wavefunction to file RutileDOS_o_WFK, with iomode -1
 prteigrs : about to open file RutileDOS_o_EIG
 Fermi (or HOMO) energy (hartree) =  -0.10774   Average Vxc (hartree)=  -0.40654
 Eigenvalues (hartree) for nkpt=   8  k points:
 kpt#   1, nband= 17, wtk=  0.12500, kpt= -0.2500  0.5000  0.0000 (reduced coord)
  -0.70827   -0.70827   -0.70037   -0.70037   -0.26836   -0.26836   -0.24395   -0.24395
  -0.21481   -0.21481   -0.19617   -0.19617   -0.16304   -0.16304   -0.15526   -0.15525
  -0.00447
 kpt#   2, nband= 17, wtk=  0.12500, kpt=  0.5000 -0.2500  0.0000 (reduced coord)
  -0.72226   -0.72226   -0.69643   -0.69643   -0.26079   -0.26079   -0.24570   -0.24570
  -0.22611   -0.22611   -0.19408   -0.19408   -0.16566   -0.16566   -0.12949   -0.12949
   0.00718
 kpt#   3, nband= 17, wtk=  0.25000, kpt= -0.2500 -0.2500  0.2500 (reduced coord)
  -0.73236   -0.70971   -0.69743   -0.69706   -0.27591   -0.26294   -0.25901   -0.24278
  -0.22493   -0.20637   -0.20213   -0.18067   -0.16461   -0.14976   -0.14228   -0.12091
  -0.00606
 kpt#   4, nband= 17, wtk=  0.12500, kpt= -0.2500  0.0000  0.0000 (reduced coord)
  -0.75449   -0.71491   -0.69222   -0.69131   -0.29570   -0.27897   -0.25502   -0.23648
  -0.23619   -0.20115   -0.19304   -0.16800   -0.14183   -0.13128   -0.12214   -0.10774
  -0.00747
 kpt#   5, nband= 17, wtk=  0.12500, kpt=  0.5000  0.5000  0.2500 (reduced coord)
  -0.70575   -0.70575   -0.70238   -0.70238   -0.27857   -0.27857   -0.25110   -0.25110
  -0.21870   -0.21870   -0.19665   -0.19665   -0.15163   -0.15163   -0.12866   -0.12866
  -0.01414
 kpt#   6, nband= 17, wtk=  0.06250, kpt=  0.0000 -0.2500  0.0000 (reduced coord)
  -0.74305   -0.70138   -0.69503   -0.69503   -0.28077   -0.26439   -0.24638   -0.24638
  -0.24404   -0.22165   -0.18479   -0.16780   -0.16780   -0.14446   -0.14446   -0.11320
  -0.00936
 kpt#   7, nband= 17, wtk=  0.06250, kpt=  0.5000 -0.2500  0.5000 (reduced coord)
  -0.71873   -0.71873   -0.69976   -0.69976   -0.27582   -0.27582   -0.26743   -0.26743
  -0.19800   -0.19800   -0.16375   -0.16375   -0.15835   -0.15835   -0.14731   -0.14731
   0.01220
 kpt#   8, nband= 17, wtk=  0.12500, kpt=  0.5000  0.0000  0.2500 (reduced coord)
  -0.73374   -0.73374   -0.69431   -0.69431   -0.28715   -0.28715   -0.23754   -0.23754
  -0.21338   -0.21338   -0.17260   -0.17260   -0.14896   -0.14896   -0.13349   -0.13349
  -0.00199
 Total charge density [el/Bohr^3]
      Maximum=    9.7349E-01  at reduced coord.    0.3594    0.0000    0.7188
 Next maximum=    9.7349E-01  at reduced coord.    0.2813    0.0000    0.6406
      Minimum=    2.9756E-04  at reduced coord.    0.0000    0.0000    0.0000
 Next minimum=    2.9756E-04  at reduced coord.    0.5000    0.5000    0.5000
   Integrated=    3.2000E+01

 Cartesian components of stress tensor (hartree/bohr^3)
  sigma(1 1)= -1.52868468E-03  sigma(3 2)=  0.00000000E+00
  sigma(2 2)= -2.24503657E-03  sigma(3 1)=  0.00000000E+00
  sigma(3 3)= -1.52868468E-03  sigma(2 1)=  0.00000000E+00

-Cartesian components of stress tensor (GPa)         [Pressure=  5.2001E+01 GPa]
- sigma(1 1)= -4.49754486E+01  sigma(3 2)=  0.00000000E+00
- sigma(2 2)= -6.60512452E+01  sigma(3 1)=  0.00000000E+00
- sigma(3 3)= -4.49754486E+01  sigma(2 1)=  0.00000000E+00

== END DATASET(S) ==============================================================

 -outvars: echo values of variables after computation  --------
            acell      8.6808000000E+00  5.5911000000E+00  8.6808000000E+00 Bohr
              amu      4.78800000E+01  1.59994000E+01
           diemac      1.20000000E+01
             ecut      6.00000000E+01 Hartree
           etotal     -7.5124205135E+01
            fcart      2.3129646346E-18  5.9611709256E-06 -1.1564823173E-18
                       2.3129646346E-18 -5.9611709256E-06 -1.1564823173E-18
                       3.2667204252E-02  1.1643508374E-06 -3.2667204252E-02
                      -3.2667204252E-02  1.1643508374E-06  3.2667204252E-02
                       3.2667204252E-02 -1.1643508374E-06  3.2667204252E-02
                      -3.2667204252E-02 -1.1643508374E-06 -3.2667204252E-02
-          fftalg         112
           getwfk          -1
              ixc          11
              kpt     -2.50000000E-01  5.00000000E-01  0.00000000E+00
                       5.00000000E-01 -2.50000000E-01  0.00000000E+00
                      -2.50000000E-01 -2.50000000E-01  2.50000000E-01
                      -2.50000000E-01  0.00000000E+00  0.00000000E+00
                       5.00000000E-01  5.00000000E-01  2.50000000E-01
                       0.00000000E+00 -2.50000000E-01  0.00000000E+00
                       5.00000000E-01 -2.50000000E-01  5.00000000E-01
                       5.00000000E-01  0.00000000E+00  2.50000000E-01
         kptrlatt        2   -2    2      0    4    0     -2   -2    2
          kptrlen      2.23644000E+01
P           mkmem           8
            natom           6
            nband          17
            ngfft          64      40      64
             nkpt           8
            nstep          50
             nsym           8
           ntypat           2
              occ      2.000000  2.000000  2.000000  2.000000  2.000000  2.000000
                       2.000000  2.000000  2.000000  2.000000  2.000000  2.000000
                       2.000000  2.000000  2.000000  2.000000  0.000000
           prtdos           2
           shiftk      5.00000000E-01  0.00000000E+00  5.00000000E-01
          spgroup         113
           strten     -1.5286846827E-03 -2.2450365697E-03 -1.5286846827E-03
                       0.0000000000E+00  0.0000000000E+00  0.0000000000E+00
           symrel      1  0  0   0  1  0   0  0  1       1  0  0   0 -1  0   0  0 -1
                      -1  0  0   0  1  0   0  0 -1      -1  0  0   0 -1  0   0  0  1
                       0  0  1   0  1  0   1  0  0       0  0  1   0 -1  0  -1  0  0
                       0  0 -1   0  1  0  -1  0  0       0  0 -1   0 -1  0   1  0  0
            tnons      0.0000000  0.0000000  0.0000000     0.5000000 -0.4999911  0.5000000
                       0.0000000  0.0000000  0.0000000     0.5000000 -0.4999911  0.5000000
                       0.0000000  0.0000000  0.0000000     0.5000000 -0.4999911  0.5000000
                       0.0000000  0.0000000  0.0000000     0.5000000 -0.4999911  0.5000000
           toldfe      1.00000000E-04 Hartree
            typat      1  1  2  2  2  2
              wtk        0.12500    0.12500    0.25000    0.12500    0.12500    0.06250
                         0.06250    0.12500
           xangst      0.0000000000E+00  0.0000000000E+00  0.0000000000E+00
                       2.2968407562E+00  1.4793678043E+00  2.2968407562E+00
                       3.1696656440E+00  0.0000000000E+00  1.4240158683E+00
                       1.4240158683E+00  0.0000000000E+00  3.1696656440E+00
                       8.7282488785E-01  1.4793678043E+00  8.7282488785E-01
                       3.7208566245E+00  1.4793678043E+00  3.7208566245E+00
            xcart      0.0000000000E+00  0.0000000000E+00  0.0000000000E+00
                       4.3404000000E+00  2.7956000000E+00  4.3404000000E+00
                       5.9898000000E+00  0.0000000000E+00  2.6910000000E+00
                       2.6910000000E+00  0.0000000000E+00  5.9898000000E+00
                       1.6494000000E+00  2.7956000000E+00  1.6494000000E+00
                       7.0314000000E+00  2.7956000000E+00  7.0314000000E+00
             xred      0.0000000000E+00  0.0000000000E+00  0.0000000000E+00
                       5.0000000000E-01  5.0000894278E-01  5.0000000000E-01
                       6.9000552944E-01  0.0000000000E+00  3.0999447056E-01
                       3.0999447056E-01  0.0000000000E+00  6.9000552944E-01
                       1.9000552944E-01  5.0000894278E-01  1.9000552944E-01
                       8.0999447056E-01  5.0000894278E-01  8.0999447056E-01
            znucl       22.00000    8.00000

 Suggested references for the acknowledgment of ABINIT usage.

 Calculation completed.
.Delivered   6 WARNINGs and   0 COMMENTs to log file.

--- !FinalSummary
program: abinit
version: 8.6.3
start_datetime: Fri Apr 27 21:50:24 2018
end_datetime: Fri Apr 27 21:51:14 2018
overall_cpu_time:          48.9
overall_wall_time:          50.1
exit_requested_by_user: no
timelimit: 0
pseudos:
    Ti  : 9d5151159dba5b2d9be995f71cdbe165
    O   : f9a33d255b992d3a483d25bc79688495
usepaw: 0
mpi_procs: 1
omp_threads: 1
num_warnings: 6
num_comments: 0
...