.Version 8.6.3 of ABINIT
.(sequential version, prepared for a x86_64_linux_gnu5.4 computer)

 ABINIT is a project of the Universite Catholique de Louvain,
 Corning Inc. and other collaborators, see ~abinit/doc/developers/contributors.txt .
 Please read ~abinit/doc/users/acknowledgments.html for suggested
 acknowledgments of the ABINIT effort.

.Starting date : Mon 23 Apr 2018.
- ( at 01h20 )

- input  file    -> DOSwithoutGeom2Layer.in
- output file    -> DOSwithoutGeom2Layer.out
- root for input  files -> DOSwithoutGeom2Layer_i
- root for output files -> DOSwithoutGeom2Layer_o

 Symmetries : space group P1 (#  1); Bravais aP (primitive triclinic)
     intxc =       0    ionmov =       0      iscf =       7    lmnmax =       6
     lnmax =       6     mgfft =     320  mpssoang =       3    mqgrid =   15692
     natom =      20  nloc_mem =       1    nspden =       1   nspinor =       1
    nsppol =       1      nsym =       1    n1xccc =    2501    ntypat =       3
    occopt =       1   xclevel =       2
-    mband =         123        mffmem =           1         mkmem =           2
       mpw =       75364          nfft =     1310720          nkpt =           2
  Rough estimation (10% accuracy) of disk space for files :

------------- Echo of variables that govern the present computation ------------
-
- outvars: echo of selected default values
-   iomode0 =  0 , fftalg0 =112 , wfoptalg0 =  0
-
- outvars: echo of global parameters not present in the input file
-  max_nthreads =    0
-
 -outvars: echo values of preprocessed input variables --------
            acell      8.6808000000E+00  8.6808000000E+00  4.5000000000E+01 Bohr
              amu      4.78800000E+01  1.59994000E+01  1.06420000E+02
           diemac      1.20000000E+01
             ecut      6.00000000E+01 Hartree
-          fftalg         112
              ixc          11
              kpt      1.25000000E-01  5.00000000E-01  5.00000000E-01
                       3.75000000E-01  5.00000000E-01  5.00000000E-01
           kptopt           2
         kptrlatt        4    0    0      0    1    0      0    0    1
          kptrlen      8.68080000E+00
P           mkmem           2
            natom          20
            nband         123
            ngfft          64      64     320
             nkpt           2
             nsym           1
           ntypat           3
              occ      2.000000  2.000000  2.000000  2.000000  2.000000  2.000000
                       2.000000  2.000000  2.000000  2.000000  2.000000  2.000000
                       2.000000  2.000000  2.000000  2.000000  2.000000  2.000000
                       2.000000  2.000000  2.000000  2.000000  2.000000  2.000000
                       2.000000  2.000000  2.000000  2.000000  2.000000  2.000000
                       2.000000  2.000000  2.000000  2.000000  2.000000  2.000000
                       2.000000  2.000000  2.000000  2.000000  2.000000  2.000000
                       2.000000  2.000000  2.000000  2.000000  2.000000  2.000000
                       2.000000  2.000000  2.000000  2.000000  2.000000  2.000000
                       2.000000  2.000000  2.000000  2.000000  2.000000  2.000000
                       2.000000  2.000000  2.000000  2.000000  2.000000  2.000000
                       2.000000  2.000000  2.000000  2.000000  2.000000  2.000000
                       2.000000  2.000000  2.000000  2.000000  2.000000  2.000000
                       2.000000  2.000000  2.000000  2.000000  2.000000  2.000000
                       2.000000  2.000000  2.000000  2.000000  2.000000  2.000000
                       2.000000  2.000000  2.000000  2.000000  2.000000  2.000000
                       2.000000  2.000000  2.000000  2.000000  2.000000  2.000000
                       2.000000  2.000000  2.000000  2.000000  2.000000  2.000000
                       2.000000  2.000000  2.000000  2.000000  2.000000  2.000000
                       2.000000  2.000000  2.000000  2.000000  2.000000  2.000000
                       0.000000  0.000000  0.000000
           prtdos           2
           shiftk      5.00000000E-01  5.00000000E-01  5.00000000E-01
          spgroup           1
           toldfe      1.00000000E-02 Hartree
            typat      1  1  1  1  2  2  2  2  2  2  2  2  3  3  3  3  3  3  3  3
              wtk        0.50000    0.50000
           xangst      0.0000000000E+00  0.0000000000E+00  0.0000000000E+00
                       0.0000000000E+00  0.0000000000E+00  4.5936815123E+00
                       2.2968407562E+00  1.4793678043E+00  2.2968407562E+00
                       2.2968407562E+00  1.4793678043E+00  6.8905222685E+00
                       3.9876836484E+01  0.0000000000E+00  1.4240158683E+00
                       3.9876836484E+01  0.0000000000E+00  6.0176973806E+00
                       3.1696656440E+00  0.0000000000E+00  3.1696656440E+00
                       3.1696656440E+00  0.0000000000E+00  7.7633471563E+00
                       8.7282488785E-01  1.4793678043E+00  3.7208566245E+00
                       8.7282488785E-01  1.4793678043E+00  8.3145381368E+00
                       3.7208566245E+00  1.4793678043E+00  8.7282488785E-01
                       3.7208566245E+00  1.4793678043E+00  5.4665064002E+00
                       8.7282488785E-01  0.0000000000E+00  1.2097837672E+01
                       8.7282488785E-01  0.0000000000E+00  1.5988560180E+01
                       1.9453612542E+00  1.3755961537E+00  1.3473433826E+01
                       1.9453612542E+00  1.3755961537E+00  1.7364156334E+01
                       1.9453612542E+00 -1.3755961537E+00  1.3473433826E+01
                       1.9453612542E+00 -1.3755961537E+00  1.7364156334E+01
                       0.0000000000E+00  0.0000000000E+00  1.4848977062E+01
                       0.0000000000E+00  0.0000000000E+00  1.8739699570E+01
            xcart      0.0000000000E+00  0.0000000000E+00  0.0000000000E+00
                       0.0000000000E+00  0.0000000000E+00  8.6808000000E+00
                       4.3404000000E+00  2.7956000000E+00  4.3404000000E+00
                       4.3404000000E+00  2.7956000000E+00  1.3021200000E+01
                       7.5356300000E+01  0.0000000000E+00  2.6910000000E+00
                       7.5356300000E+01  0.0000000000E+00  1.1371800000E+01
                       5.9898000000E+00  0.0000000000E+00  5.9898000000E+00
                       5.9898000000E+00  0.0000000000E+00  1.4670600000E+01
                       1.6494000000E+00  2.7956000000E+00  7.0314000000E+00
                       1.6494000000E+00  2.7956000000E+00  1.5712200000E+01
                       7.0314000000E+00  2.7956000000E+00  1.6494000000E+00
                       7.0314000000E+00  2.7956000000E+00  1.0330200000E+01
                       1.6494000000E+00  0.0000000000E+00  2.2861600000E+01
                       1.6494000000E+00  0.0000000000E+00  3.0214000000E+01
                       3.6762000000E+00  2.5995000000E+00  2.5461100000E+01
                       3.6762000000E+00  2.5995000000E+00  3.2813500000E+01
                       3.6762000000E+00 -2.5995000000E+00  2.5461100000E+01
                       3.6762000000E+00 -2.5995000000E+00  3.2813500000E+01
                       0.0000000000E+00  0.0000000000E+00  2.8060500000E+01
                       0.0000000000E+00  0.0000000000E+00  3.5412900000E+01
             xred      0.0000000000E+00  0.0000000000E+00  0.0000000000E+00
                       0.0000000000E+00  0.0000000000E+00  1.9290666667E-01
                       5.0000000000E-01  3.2204405124E-01  9.6453333333E-02
                       5.0000000000E-01  3.2204405124E-01  2.8936000000E-01
                       8.6808013086E+00  0.0000000000E+00  5.9800000000E-02
                       8.6808013086E+00  0.0000000000E+00  2.5270666667E-01
                       6.9000552944E-01  0.0000000000E+00  1.3310666667E-01
                       6.9000552944E-01  0.0000000000E+00  3.2601333333E-01
                       1.9000552944E-01  3.2204405124E-01  1.5625333333E-01
                       1.9000552944E-01  3.2204405124E-01  3.4916000000E-01
                       8.0999447056E-01  3.2204405124E-01  3.6653333333E-02
                       8.0999447056E-01  3.2204405124E-01  2.2956000000E-01
                       1.9000552944E-01  0.0000000000E+00  5.0803555556E-01
                       1.9000552944E-01  0.0000000000E+00  6.7142222222E-01
                       4.2348631463E-01  2.9945396738E-01  5.6580222222E-01
                       4.2348631463E-01  2.9945396738E-01  7.2918888889E-01
                       4.2348631463E-01 -2.9945396738E-01  5.6580222222E-01
                       4.2348631463E-01 -2.9945396738E-01  7.2918888889E-01
                       0.0000000000E+00  0.0000000000E+00  6.2356666667E-01
                       0.0000000000E+00  0.0000000000E+00  7.8695333333E-01
            znucl       22.00000    8.00000   46.00000

 chkinp: Checking input parameters for consistency.

== DATASET  1 ==================================================================
-   nproc =    1

 Real(R)+Recip(G) space primitive vectors, cartesian coordinates (Bohr,Bohr^-1):
 R(1)=  8.6808000  0.0000000  0.0000000  G(1)=  0.1151968  0.0000000  0.0000000
 R(2)=  0.0000000  8.6808000  0.0000000  G(2)=  0.0000000  0.1151968  0.0000000
 R(3)=  0.0000000  0.0000000 45.0000000  G(3)=  0.0000000  0.0000000  0.0222222
 Unit cell volume ucvol=  3.3910330E+03 bohr^3
 Angles (23,13,12)=  9.00000000E+01  9.00000000E+01  9.00000000E+01 degrees

 getcut: wavevector=  0.0000  0.0000  0.0000  ngfft=  64  64 320
         ecut(hartree)=     60.000   => boxcut(ratio)=   2.03937

--- Pseudopotential description ------------------------------------------------
- pspini: atom type   1  psp file is ../../../Psps_for_tests/Ti.psp8
- pspatm: opening atomic psp file    ../../../Psps_for_tests/Ti.psp8
- Ti    ONCVPSP-3.2.3.1  r_core=   1.35825   1.31050   1.66360
- 22.00000  12.00000    170504                znucl, zion, pspdat
    8   11    2    4       600   0.00000      pspcod,pspxc,lmax,lloc,mmax,r2well
    5.99000000000000    2.50000000000000    0.00000000000000   rchrg,fchrg,qchrg
     nproj     2     2     2
     extension_switch     1
  pspatm : epsatm=   14.68144390
         --- l  ekb(1:nproj) -->
             0   11.362348    1.263639
             1    1.975402   -0.084666
             2   -5.186090   -1.477451
 pspatm: atomic psp has been read  and splines computed

- pspini: atom type   2  psp file is ../../../Psps_for_tests/O.psp8
- pspatm: opening atomic psp file    ../../../Psps_for_tests/O.psp8
- O     ONCVPSP-3.2.3.1  r_core=   1.35509   1.45563   1.26150
-  8.00000   6.00000    170504                znucl, zion, pspdat
    8   11    2    4       600   0.00000      pspcod,pspxc,lmax,lloc,mmax,r2well
    5.99000000000000    4.00000000000000    0.00000000000000   rchrg,fchrg,qchrg
     nproj     2     2     1
     extension_switch     1
  pspatm : epsatm=    6.19546011
         --- l  ekb(1:nproj) -->
             0    6.056735    0.824024
             1   -4.717130   -1.149271
             2   -1.331955
[...]
    9     -0.12073123727133    -0.25913909376115    -1.59191115968736
   10      0.03148783246423    -0.01491874627599    -0.62089289333810
   11      0.28485380310121     0.00767741339128    -0.98490269232615
   12      0.21367779168585    -0.09542830002492    -1.55065166681555
   13     -0.21927513149910    -0.05597075996754    -0.22814016219735
   14      1.95755570282937    -0.04819404603258     2.56243929238622
   15      0.05061791124221    -0.17771034793410     0.23353708898503
   16     -0.15600750659583    -0.34177876985047     0.64436886120088
   17      0.02433231495706     0.24953307310812     0.21054214633714
   18     -0.17683471725457     0.41093093649319     0.76384042501186
   19     -1.69381447870722     0.02388083361281    -2.70615863310608
   20      0.14626369733668    -0.02356145168930    -0.61978662062849
 frms,max,avg= 9.6056503E-01 3.0805471E+00   9.005E-03 -3.440E-03 -8.666E-03 h/b

 cartesian forces (eV/Angstrom) at end:
    1     -8.57743960160009     1.14542269399875    53.74019204794939
    2    -20.94922523569142    39.72686484271950   158.40808729701595
    3    -21.01604744240703     9.49781599196079   139.92301167143108
    4     -1.89118062379273    19.75325967090700    62.06015401757457
    5      8.73038989559349   -11.47567694588068   -72.93275961061714
    6      8.17014503659234   -21.71361781536032   -68.03422746767505
    7     11.97244989464668    -8.97600933306657   -60.20516150231499
    8      5.96808419571467   -11.26238173534278   -13.04491789888240
    9     -6.20824931224184   -13.32546685496172   -81.85935624985088
   10      1.61916931076174    -0.76715271375248   -31.92759359683481
   11     14.64777026361596     0.39478843655936   -50.64572848298766
   12     10.98775290684471    -4.90712007420775   -79.73770800011742
   13    -11.27557966843010    -2.87813195596763   -11.73143783719636
   14    100.66155305319155    -2.47823728057632   131.76591521932338
   15      2.60287743055521    -9.13823274137966    12.00895894751659
   16     -8.02222786263193   -17.57496950101151    33.13477629977337
   17      1.25121783733499    12.83150545391596    10.82651155357524
   18     -9.09320600524358    21.13091658399283    39.27825060373538
   19    -87.09943515998783     1.22800173512084  -139.15626023976480
   20      7.52118108717523    -1.21157845766760   -31.87070677165343
 frms,max,avg= 4.9394236E+01 1.5840809E+02   4.630E-01 -1.769E-01 -4.456E-01 e/A
 length scales=  8.680800000000  8.680800000000 45.000000000000 bohr
              =  4.593681512328  4.593681512328 23.812974386550 angstroms
 prteigrs : about to open file DOSwithoutGeom2Layer_o_EIG
 Fermi (or HOMO) energy (hartree) =   0.24391   Average Vxc (hartree)=  -0.32062
 Eigenvalues (hartree) for nkpt=   2  k points:
 kpt#   1, nband=123, wtk=  0.50000, kpt=  0.1250  0.5000  0.5000 (reduced coord)
  -3.10651   -2.93437   -2.93000   -2.92589   -2.85169   -2.84587   -2.84247   -2.79182
  -2.35949   -2.22938   -2.10963   -2.00131   -1.91642   -1.74699   -1.73694   -1.73092
  -1.68831   -1.67582   -1.66762   -1.66465   -1.66148   -1.65966   -1.65733   -1.65061
  -1.64788   -1.61537   -1.60314   -1.59563   -1.58734   -1.58479   -1.57767   -1.57193
  -1.54568   -1.53017   -1.51355   -1.49019   -1.48353   -1.46609   -1.45661   -1.35261
  -1.34963   -1.34411   -1.25574   -1.24371   -1.23607   -1.06401   -1.05515   -1.03866
  -0.91663   -0.77750   -0.66444   -0.65081   -0.55382   -0.53544   -0.47317   -0.38091
  -0.37179   -0.34027   -0.33740   -0.29287   -0.22952   -0.20330   -0.19083   -0.16957
  -0.16504   -0.15826   -0.15526   -0.13788   -0.12536   -0.11762   -0.10950   -0.09633
  -0.08396   -0.07020   -0.06020   -0.03579   -0.03174   -0.03055   -0.02418   -0.01422
  -0.00474    0.00950    0.01629    0.01832    0.03077    0.04795    0.05166    0.05490
   0.05774    0.05894    0.06231    0.06629    0.07236    0.07444    0.07899    0.09078
   0.09254    0.09602    0.10392    0.10710    0.11444    0.11649    0.12096    0.12438
   0.13041    0.13293    0.13922    0.14263    0.14772    0.15190    0.15985    0.16937
   0.17161    0.17711    0.18094    0.18770    0.19848    0.20570    0.22784    0.24391
   0.26465    0.27527    0.31194
 prteigrs : prtvol=0 or 1, do not print more k-points.

 Components of total free energy (in Hartree) :

    Kinetic energy  =  5.31263362110466E+02
    Hartree energy  =  1.16615252760784E+03
    XC energy       = -2.33132289459004E+02
    Ewald energy    =  8.89319997862754E+01
    PspCore energy  =  2.24375816852798E+01
    Loc. psp. energy= -2.99162573552639E+03
    NL   psp  energy= -4.14014957982984E+00
    >>>>>>>>> Etotal= -1.42011270337536E+03

 Other information on the energy :
    Total energy(eV)= -3.86432318960092E+04 ; Band energy (Ha)=  -1.8101222413E+02

 Cartesian components of stress tensor (hartree/bohr^3)
  sigma(1 1)= -4.04157343E-03  sigma(3 2)=  8.45368104E-05
  sigma(2 2)= -5.89500802E-03  sigma(3 1)= -1.42406543E-03
  sigma(3 3)=  8.39031594E-03  sigma(2 1)= -1.31551593E-07

-Cartesian components of stress tensor (GPa)         [Pressure=  1.5164E+01 GPa]
- sigma(1 1)= -1.18907176E+02  sigma(3 2)=  2.48715841E+00
- sigma(2 2)= -1.73437095E+02  sigma(3 1)= -4.18974443E+01
- sigma(3 3)=  2.46851576E+02  sigma(2 1)= -3.87038083E-03

== END DATASET(S) ==============================================================

 -outvars: echo values of variables after computation  --------
            acell      8.6808000000E+00  8.6808000000E+00  4.5000000000E+01 Bohr
              amu      4.78800000E+01  1.59994000E+01  1.06420000E+02
           diemac      1.20000000E+01
             ecut      6.00000000E+01 Hartree
           etotal     -1.4201127034E+03
            fcart     -1.6680465678E-01  2.2274926809E-02  1.0450804326E+00
                      -4.0739760203E-01  7.7256458369E-01  3.0805470933E+00
                      -4.0869708716E-01  1.8470312940E-01  2.7210695757E+00
                      -3.6777610745E-02  3.8413977279E-01  1.2068779463E+00
                       1.6977906668E-01 -2.2316640433E-01 -1.4183164790E+00
                       1.5888403789E-01 -4.2226267223E-01 -1.3230551877E+00
                       2.3282710089E-01 -1.7455560465E-01 -1.1708040822E+00
                       1.1606076896E-01 -2.1901847254E-01 -2.5368328474E-01
                      -1.2073123727E-01 -2.5913909376E-01 -1.5919111597E+00
                       3.1487832464E-02 -1.4918746276E-02 -6.2089289334E-01
                       2.8485380310E-01  7.6774133913E-03 -9.8490269233E-01
                       2.1367779169E-01 -9.5428300025E-02 -1.5506516668E+00
                      -2.1927513150E-01 -5.5970759968E-02 -2.2814016220E-01
                       1.9575557028E+00 -4.8194046033E-02  2.5624392924E+00
                       5.0617911242E-02 -1.7771034793E-01  2.3353708899E-01
                      -1.5600750660E-01 -3.4177876985E-01  6.4436886120E-01
                       2.4332314957E-02  2.4953307311E-01  2.1054214634E-01
                      -1.7683471725E-01  4.1093093649E-01  7.6384042501E-01
                      -1.6938144787E+00  2.3880833613E-02 -2.7061586331E+00
                       1.4626369734E-01 -2.3561451689E-02 -6.1978662063E-01
-          fftalg         112
              ixc          11
              kpt      1.25000000E-01  5.00000000E-01  5.00000000E-01
                       3.75000000E-01  5.00000000E-01  5.00000000E-01
           kptopt           2
         kptrlatt        4    0    0      0    1    0      0    0    1
          kptrlen      8.68080000E+00
P           mkmem           2
            natom          20
            nband         123
            ngfft          64      64     320
             nkpt           2
             nsym           1
           ntypat           3
              occ      2.000000  2.000000  2.000000  2.000000  2.000000  2.000000
                       2.000000  2.000000  2.000000  2.000000  2.000000  2.000000
                       2.000000  2.000000  2.000000  2.000000  2.000000  2.000000
                       2.000000  2.000000  2.000000  2.000000  2.000000  2.000000
                       2.000000  2.000000  2.000000  2.000000  2.000000  2.000000
                       2.000000  2.000000  2.000000  2.000000  2.000000  2.000000
                       2.000000  2.000000  2.000000  2.000000  2.000000  2.000000
                       2.000000  2.000000  2.000000  2.000000  2.000000  2.000000
                       2.000000  2.000000  2.000000  2.000000  2.000000  2.000000
                       2.000000  2.000000  2.000000  2.000000  2.000000  2.000000
                       2.000000  2.000000  2.000000  2.000000  2.000000  2.000000
                       2.000000  2.000000  2.000000  2.000000  2.000000  2.000000
                       2.000000  2.000000  2.000000  2.000000  2.000000  2.000000
                       2.000000  2.000000  2.000000  2.000000  2.000000  2.000000
                       2.000000  2.000000  2.000000  2.000000  2.000000  2.000000
                       2.000000  2.000000  2.000000  2.000000  2.000000  2.000000
                       2.000000  2.000000  2.000000  2.000000  2.000000  2.000000
                       2.000000  2.000000  2.000000  2.000000  2.000000  2.000000
                       2.000000  2.000000  2.000000  2.000000  2.000000  2.000000
                       2.000000  2.000000  2.000000  2.000000  2.000000  2.000000
                       0.000000  0.000000  0.000000
           prtdos           2
           shiftk      5.00000000E-01  5.00000000E-01  5.00000000E-01
          spgroup           1
           strten     -4.0415734306E-03 -5.8950080228E-03  8.3903159444E-03
                       8.4536810383E-05 -1.4240654281E-03 -1.3155159263E-07
           toldfe      1.00000000E-02 Hartree
            typat      1  1  1  1  2  2  2  2  2  2  2  2  3  3  3  3  3  3  3  3
              wtk        0.50000    0.50000
           xangst      0.0000000000E+00  0.0000000000E+00  0.0000000000E+00
                       0.0000000000E+00  0.0000000000E+00  4.5936815123E+00
                       2.2968407562E+00  1.4793678043E+00  2.2968407562E+00
                       2.2968407562E+00  1.4793678043E+00  6.8905222685E+00
                       3.9876836484E+01  0.0000000000E+00  1.4240158683E+00
                       3.9876836484E+01  0.0000000000E+00  6.0176973806E+00
                       3.1696656440E+00  0.0000000000E+00  3.1696656440E+00
                       3.1696656440E+00  0.0000000000E+00  7.7633471563E+00
                       8.7282488785E-01  1.4793678043E+00  3.7208566245E+00
                       8.7282488785E-01  1.4793678043E+00  8.3145381368E+00
                       3.7208566245E+00  1.4793678043E+00  8.7282488785E-01
                       3.7208566245E+00  1.4793678043E+00  5.4665064002E+00
                       8.7282488785E-01  0.0000000000E+00  1.2097837672E+01
                       8.7282488785E-01  0.0000000000E+00  1.5988560180E+01
                       1.9453612542E+00  1.3755961537E+00  1.3473433826E+01
                       1.9453612542E+00  1.3755961537E+00  1.7364156334E+01
                       1.9453612542E+00 -1.3755961537E+00  1.3473433826E+01
                       1.9453612542E+00 -1.3755961537E+00  1.7364156334E+01
                       0.0000000000E+00  0.0000000000E+00  1.4848977062E+01
                       0.0000000000E+00  0.0000000000E+00  1.8739699570E+01
            xcart      0.0000000000E+00  0.0000000000E+00  0.0000000000E+00
                       0.0000000000E+00  0.0000000000E+00  8.6808000000E+00
                       4.3404000000E+00  2.7956000000E+00  4.3404000000E+00
                       4.3404000000E+00  2.7956000000E+00  1.3021200000E+01
                       7.5356300000E+01  0.0000000000E+00  2.6910000000E+00
                       7.5356300000E+01  0.0000000000E+00  1.1371800000E+01
                       5.9898000000E+00  0.0000000000E+00  5.9898000000E+00
                       5.9898000000E+00  0.0000000000E+00  1.4670600000E+01
                       1.6494000000E+00  2.7956000000E+00  7.0314000000E+00
                       1.6494000000E+00  2.7956000000E+00  1.5712200000E+01
                       7.0314000000E+00  2.7956000000E+00  1.6494000000E+00
                       7.0314000000E+00  2.7956000000E+00  1.0330200000E+01
                       1.6494000000E+00  0.0000000000E+00  2.2861600000E+01
                       1.6494000000E+00  0.0000000000E+00  3.0214000000E+01
                       3.6762000000E+00  2.5995000000E+00  2.5461100000E+01
                       3.6762000000E+00  2.5995000000E+00  3.2813500000E+01
                       3.6762000000E+00 -2.5995000000E+00  2.5461100000E+01
                       3.6762000000E+00 -2.5995000000E+00  3.2813500000E+01
                       0.0000000000E+00  0.0000000000E+00  2.8060500000E+01
                       0.0000000000E+00  0.0000000000E+00  3.5412900000E+01
             xred      0.0000000000E+00  0.0000000000E+00  0.0000000000E+00
                       0.0000000000E+00  0.0000000000E+00  1.9290666667E-01
                       5.0000000000E-01  3.2204405124E-01  9.6453333333E-02
                       5.0000000000E-01  3.2204405124E-01  2.8936000000E-01
                       8.6808013086E+00  0.0000000000E+00  5.9800000000E-02
                       8.6808013086E+00  0.0000000000E+00  2.5270666667E-01
                       6.9000552944E-01  0.0000000000E+00  1.3310666667E-01
                       6.9000552944E-01  0.0000000000E+00  3.2601333333E-01
                       1.9000552944E-01  3.2204405124E-01  1.5625333333E-01
                       1.9000552944E-01  3.2204405124E-01  3.4916000000E-01
                       8.0999447056E-01  3.2204405124E-01  3.6653333333E-02
                       8.0999447056E-01  3.2204405124E-01  2.2956000000E-01
                       1.9000552944E-01  0.0000000000E+00  5.0803555556E-01
                       1.9000552944E-01  0.0000000000E+00  6.7142222222E-01
                       4.2348631463E-01  2.9945396738E-01  5.6580222222E-01
                       4.2348631463E-01  2.9945396738E-01  7.2918888889E-01
                       4.2348631463E-01 -2.9945396738E-01  5.6580222222E-01
                       4.2348631463E-01 -2.9945396738E-01  7.2918888889E-01
                       0.0000000000E+00  0.0000000000E+00  6.2356666667E-01
                       0.0000000000E+00  0.0000000000E+00  7.8695333333E-01
            znucl       22.00000    8.00000   46.00000

-
-  as well as % of the time and number of calls for node 0-
-<BEGIN_TIMER mpi_nprocs = 1, omp_nthreads = 1, mpi_rank = 0>
- cpu_time =         6724.8, wall_time =         7674.0
-
-                                                                  (-1=no count)
- projbd                      2572.438  38.3   2581.302  33.6          62288      -1.00        1.00       1.00
- nonlop(apply)               1801.203  26.8   2732.375  35.6          39016      -1.00        0.66       0.66
- fourwf%(pot)                1220.250  18.1   1224.643  16.0          39016      -1.00        1.00       1.00
- vtowfk(ssdiag)               443.141   6.6    444.462   5.8             -1      -1.00        1.00       1.00
- fourwf%(den)                 132.438   2.0    133.107   1.7           7200      -1.00        0.99       0.99
- others (108)                 110.406   1.6    109.907   1.4             -1      -1.00        1.00       1.00
-<END_TIMER>
-
- subtotal                    6279.875  93.4   7225.796  94.2                                  0.87       0.87

- as well as % of the total time and number of calls

-<BEGIN_TIMER mpi_nprocs = 1, omp_nthreads = 1, mpi_rank = world>
- cpu_time =        6724.8, wall_time =        7674.0
-
-                                                                  (-1=no count)
- projbd                      2572.438  38.3   2581.302  33.6          62288      -1.00        1.00       1.00
- nonlop(apply)               1801.203  26.8   2732.375  35.6          39016      -1.00        0.66       0.66
- fourwf%(pot)                1220.250  18.1   1224.643  16.0          39016      -1.00        1.00       1.00
- vtowfk(ssdiag)               443.141   6.6    444.462   5.8             -1      -1.00        1.00       1.00
- fourwf%(den)                 132.438   2.0    133.107   1.7           7200      -1.00        0.99       0.99
- others (108)                 110.406   1.6    109.907   1.4             -1      -1.00        1.00       1.00
-<END_TIMER>

- subtotal                    6279.875  93.4   7225.796  94.2                                  0.87       0.87

 Suggested references for the acknowledgment of ABINIT usage.

 Calculation completed.
.Delivered   2 WARNINGs and   2 COMMENTs to log file.