.Version 8.6.3 of ABINIT
.(sequential version, prepared for a x86_64_linux_gnu5.4 computer)

 ABINIT is a project of the Universite Catholique de Louvain,
 Corning Inc. and other collaborators, see ~abinit/doc/developers/contributors.txt .
 Please read ~abinit/doc/users/acknowledgments.html for suggested
 acknowledgments of the ABINIT effort.

.Starting date : Mon 23 Apr 2018.
- ( at 01h20 )

 === Build Information ===
  Version       : 8.6.3
  Build target  : x86_64_linux_gnu5.4
  Build date    : 20180412

 === Optimizations ===
  Debug level        : basic
  Optimization level : standard
  Architecture       : unknown_unknown

 === Multicore ===
  Parallel build : no
  Parallel I/O   : no
  openMP support : no
  GPU support    : no

 === Connectors / Fallbacks ===
  Connectors on : yes
  Fallbacks on  : yes
  DFT flavor    : none
  FFT flavor    : none
  LINALG flavor : netlib-fallback
  MATH flavor   : none
  TIMER flavor  : abinit
  TRIO flavor   : none

 === Experimental features ===
  Bindings            : @enable_bindings@
  Exports             : no
  GW double-precision : no

 Default optimizations:
   -O2 -mtune=native -march=native

 Optimizations for 20_datashare:
   -O0

 CPP options activated during the build:

                    CC_GNU                   CXX_GNU                    FC_GNU

 HAVE_FC_ALLOCATABLE_DT...             HAVE_FC_ASYNC         HAVE_FC_BACKTRACE

  HAVE_FC_COMMAND_ARGUMENT      HAVE_FC_COMMAND_LINE        HAVE_FC_CONTIGUOUS

           HAVE_FC_CPUTIME              HAVE_FC_EXIT             HAVE_FC_FLUSH

             HAVE_FC_GAMMA            HAVE_FC_GETENV   HAVE_FC_IEEE_EXCEPTIONS

          HAVE_FC_INT_QUAD             HAVE_FC_IOMSG     HAVE_FC_ISO_C_BINDING

  HAVE_FC_ISO_FORTRAN_2008        HAVE_FC_LONG_LINES        HAVE_FC_MOVE_ALLOC

           HAVE_FC_PRIVATE         HAVE_FC_PROTECTED         HAVE_FC_STREAM_IO

            HAVE_FC_SYSTEM          HAVE_FORTRAN2003        HAVE_LIBPAW_ABINIT

      HAVE_LIBTETRA_ABINIT             HAVE_OS_LINUX         HAVE_TIMER_ABINIT

              USE_MACROAVE

- input  file    -> DOSwithoutGeom2Layer.in
- output file    -> DOSwithoutGeom2Layer.out
- root for input  files -> DOSwithoutGeom2Layer_i
- root for output files -> DOSwithoutGeom2Layer_o

-instrng: 95 lines of input have been read from file DOSwithoutGeom2Layer.in

 Please give name of formatted atomic psp file
 iofn2 : for atom type 1, psp file is ../../../Psps_for_tests/Ti.psp8

 Please give name of formatted atomic psp file
 iofn2 : for atom type 2, psp file is ../../../Psps_for_tests/O.psp8

 Please give name of formatted atomic psp file
 iofn2 : for atom type 3, psp file is ../../../Psps_for_tests/Pd.psp8
  read the values zionpsp= 12.0 , pspcod=   8 , lmax=   2
  read the values zionpsp=  6.0 , pspcod=   8 , lmax=   2
  read the values zionpsp= 18.0 , pspcod=   8 , lmax=   2

 inpspheads: deduce mpsang = 3, n1xccc = 2501.
 invars1 : treat image number: 1

 symlatt : the Bravais lattice is tP (primitive tetragonal)
  xcart  is defined in input file
 ingeo : takes atomic coordinates from input array xcart
 symfind : exit, nsym=1
   symrel matrices, symafm and tnons are :
   1       1   0   0     0   1   0     0   0   1       1      0.0000  0.0000  0.0000

 symlatt : the Bravais lattice is tP (primitive tetragonal)

 symlatt : the Bravais lattice is tP (primitive tetragonal)

--- !COMMENT
src_file: symbrav.F90
src_line: 201
message: |
    The Bravais lattice determined only from the primitive
    vectors, bravais(1)=  4, is more symmetric
    than the real one, iholohedry=  1, obtained by taking into
    account the atomic positions. Start deforming the primitive vector set.
...

 symlatt : the Bravais lattice is mC (one-face-centered monoclinic)

--- !COMMENT
src_file: symbrav.F90
src_line: 210
message: |
    The Bravais lattice determined from modified primitive
    vectors, bravais(1)=  2, has a lower symmetry than before,
    but is still more symmetric than the real one, iholohedry=  1
    obtained by taking into account the atomic positions.
...

 symlatt : the Bravais lattice is aP (primitive triclinic)
 symspgr : spgroup=   1  P1   (=C1^1)
 ingeo : angdeg(1:3)=   90.00000000   90.00000000   90.00000000
 invars2: take the default value of fband=  1.25000000E-01
 chkneu : initialized the occupation numbers for occopt=    1, spin-unpolarized or antiferromagnetic case :
  2.00  2.00  2.00  2.00  2.00  2.00  2.00  2.00  2.00  2.00  2.00  2.00
  2.00  2.00  2.00  2.00  2.00  2.00  2.00  2.00  2.00  2.00  2.00  2.00
  2.00  2.00  2.00  2.00  2.00  2.00  2.00  2.00  2.00  2.00  2.00  2.00
  2.00  2.00  2.00  2.00  2.00  2.00  2.00  2.00  2.00  2.00  2.00  2.00
  2.00  2.00  2.00  2.00  2.00  2.00  2.00  2.00  2.00  2.00  2.00  2.00
  2.00  2.00  2.00  2.00  2.00  2.00  2.00  2.00  2.00  2.00  2.00  2.00
  2.00  2.00  2.00  2.00  2.00  2.00  2.00  2.00  2.00  2.00  2.00  2.00
  2.00  2.00  2.00  2.00  2.00  2.00  2.00  2.00  2.00  2.00  2.00  2.00
  2.00  2.00  2.00  2.00  2.00  2.00  2.00  2.00  2.00  2.00  2.00  2.00
  2.00  2.00  2.00  2.00  2.00  2.00  2.00  2.00  2.00  2.00  2.00  2.00
  0.00  0.00  0.00
mpi_setup: mkmem  undefined in the input file.Use default mkmem  = nkpt
 mpi_setup: With nkpt_me=2 and mkmem  = 2, ground state wf handled in core.
mpi_setup: mkqmem undefined in the input file.Use default mkqmem = nkpt
 mpi_setup: With nkpt_me=2 and mkqmem = 2, ground state wf handled in core.
mpi_setup: mk1mem undefined in the input file.Use default mk1mem = nkpt
 mpi_setup: With nkpt_me=2 and mk1mem = 2, ground state wf handled in core.
 For input ecut=  6.000000E+01 best grid ngfft=      64      64     320
       max ecut=  6.238565E+01

 ==== FFT mesh ====
  FFT mesh divisions ........................    64   64  320
  Augmented FFT divisions ...................    65   65  320
  FFT algorithm .............................   112
  FFT cache size ............................    16
 getmpw: optimal value of mpw= 75364

 Symmetries : space group P1 (#  1); Bravais aP (primitive triclinic)

 getdim_nloc : deduce lmnmax  =  18, lnmax  =   6,
                      lmnmaxso=  18, lnmaxso=   6.
     intxc =       0    ionmov =       0      iscf =       7    lmnmax =       6
     lnmax =       6     mgfft =     320  mpssoang =       3    mqgrid =   15692
     natom =      20  nloc_mem =       1    nspden =       1   nspinor =       1
    nsppol =       1      nsym =       1    n1xccc =    2501    ntypat =       3
    occopt =       1   xclevel =       2
-    mband =         123        mffmem =           1         mkmem =           2
       mpw =       75364          nfft =     1310720          nkpt =           2
  Rough estimation (10% accuracy) of disk space for files :

 The job will continue.
------------- Echo of variables that govern the present computation ------------
-
- outvars: echo of selected default values
-   iomode0 =  0 , fftalg0 =112 , wfoptalg0 =  0
-
- outvars: echo of global parameters not present in the input file
-  max_nthreads =    0
-
 -outvars: echo values of preprocessed input variables --------
            acell      8.6808000000E+00  8.6808000000E+00  4.5000000000E+01 Bohr
              amu      4.78800000E+01  1.59994000E+01  1.06420000E+02
           diemac      1.20000000E+01
             ecut      6.00000000E+01 Hartree
-          fftalg         112
              ixc          11
              kpt      1.25000000E-01  5.00000000E-01  5.00000000E-01
                       3.75000000E-01  5.00000000E-01  5.00000000E-01
           kptopt           2
         kptrlatt        4    0    0      0    1    0      0    0    1
          kptrlen      8.68080000E+00
P           mkmem           2
            natom          20
            nband         123
            ngfft          64      64     320
             nkpt           2
             nsym           1
           ntypat           3
              occ      2.000000  2.000000  2.000000  2.000000  2.000000  2.000000
                       2.000000  2.000000  2.000000  2.000000  2.000000  2.000000
                       2.000000  2.000000  2.000000  2.000000  2.000000  2.000000
                       2.000000  2.000000  2.000000  2.000000  2.000000  2.000000
                       2.000000  2.000000  2.000000  2.000000  2.000000  2.000000
                       2.000000  2.000000  2.000000  2.000000  2.000000  2.000000
                       2.000000  2.000000  2.000000  2.000000  2.000000  2.000000
                       2.000000  2.000000  2.000000  2.000000  2.000000  2.000000
                       2.000000  2.000000  2.000000  2.000000  2.000000  2.000000
                       2.000000  2.000000  2.000000  2.000000  2.000000  2.000000
                       2.000000  2.000000  2.000000  2.000000  2.000000  2.000000
                       2.000000  2.000000  2.000000  2.000000  2.000000  2.000000
                       2.000000  2.000000  2.000000  2.000000  2.000000  2.000000
                       2.000000  2.000000  2.000000  2.000000  2.000000  2.000000
                       2.000000  2.000000  2.000000  2.000000  2.000000  2.000000
                       2.000000  2.000000  2.000000  2.000000  2.000000  2.000000
                       2.000000  2.000000  2.000000  2.000000  2.000000  2.000000
                       2.000000  2.000000  2.000000  2.000000  2.000000  2.000000
                       2.000000  2.000000  2.000000  2.000000  2.000000  2.000000
                       2.000000  2.000000  2.000000  2.000000  2.000000  2.000000
                       0.000000  0.000000  0.000000
           prtdos           2
           shiftk      5.00000000E-01  5.00000000E-01  5.00000000E-01
          spgroup           1
           toldfe      1.00000000E-02 Hartree
            typat      1  1  1  1  2  2  2  2  2  2  2  2  3  3  3  3  3  3  3  3
              wtk        0.50000    0.50000
           xangst      0.0000000000E+00  0.0000000000E+00  0.0000000000E+00
                       0.0000000000E+00  0.0000000000E+00  4.5936815123E+00
                       2.2968407562E+00  1.4793678043E+00  2.2968407562E+00
                       2.2968407562E+00  1.4793678043E+00  6.8905222685E+00
                       3.9876836484E+01  0.0000000000E+00  1.4240158683E+00
                       3.9876836484E+01  0.0000000000E+00  6.0176973806E+00
                       3.1696656440E+00  0.0000000000E+00  3.1696656440E+00
                       3.1696656440E+00  0.0000000000E+00  7.7633471563E+00
                       8.7282488785E-01  1.4793678043E+00  3.7208566245E+00
                       8.7282488785E-01  1.4793678043E+00  8.3145381368E+00
                       3.7208566245E+00  1.4793678043E+00  8.7282488785E-01
                       3.7208566245E+00  1.4793678043E+00  5.4665064002E+00
                       8.7282488785E-01  0.0000000000E+00  1.2097837672E+01
                       8.7282488785E-01  0.0000000000E+00  1.5988560180E+01
                       1.9453612542E+00  1.3755961537E+00  1.3473433826E+01
                       1.9453612542E+00  1.3755961537E+00  1.7364156334E+01
                       1.9453612542E+00 -1.3755961537E+00  1.3473433826E+01
[...]
 tetrahedron : integrate to  2.46000000E+02

 ----iterations are completed or convergence reached----

 === Gap info ===
  >>>> For spin  1
   Minimum optical gap =   0.5332 [eV], located at k-point      :   0.3750  0.5000  0.5000
   Fundamental gap     =   0.2088 [eV], Top of valence bands at :   0.1250  0.5000  0.5000
                                        Bottom of conduction at :   0.3750  0.5000  0.5000
 Mean square residual over all n,k,spin=   1.2633E-02; max=  2.7419E-01
   0.1250  0.5000  0.5000    1  9.05138E-02 kpt; spin; max resid(k); each band:
  1.45E-03 1.54E-03 4.29E-04 2.68E-04 3.28E-04 7.90E-04 8.09E-04 6.20E-04
  7.09E-04 9.98E-04 7.19E-04 5.94E-04 6.57E-04 5.77E-04 3.49E-04 7.13E-04
  7.55E-04 2.13E-04 2.70E-04 3.25E-04 3.68E-04 2.36E-04 4.21E-04 5.52E-03
  4.90E-03 3.25E-04 2.22E-04 2.79E-04 7.89E-04 5.90E-04 1.37E-03 1.42E-03
  1.08E-03 1.61E-03 4.67E-04 1.26E-03 2.97E-04 1.22E-03 1.04E-03 7.93E-04
  2.52E-04 2.68E-04 7.51E-04 1.45E-03 1.46E-03 8.31E-04 5.45E-04 2.89E-04
  1.74E-03 5.70E-03 3.77E-04 4.64E-04 1.30E-03 2.30E-03 5.43E-03 1.11E-03
  1.29E-03 3.76E-03 7.05E-04 8.85E-04 2.07E-02 1.99E-02 4.37E-04 1.64E-03
  2.89E-03 3.37E-03 4.21E-03 3.16E-03 1.49E-03 6.37E-04 1.14E-03 1.27E-03
  1.75E-03 4.82E-03 2.39E-02 2.71E-03 2.96E-02 3.01E-02 8.85E-03 3.74E-02
  6.75E-03 1.21E-02 5.06E-03 2.18E-03 1.28E-02 8.48E-04 2.96E-03 3.40E-03
  2.79E-03 5.25E-03 6.49E-03 2.00E-02 2.43E-02 3.17E-02 1.62E-02 8.90E-03
  2.89E-02 1.15E-02 1.14E-02 4.58E-02 1.91E-02 8.04E-02 5.53E-02 1.55E-02
  1.89E-02 1.19E-02 8.53E-03 2.25E-02 2.88E-02 1.89E-02 1.70E-02 4.22E-02
  3.28E-02 4.25E-02 1.56E-02 4.64E-02 9.05E-02 3.30E-02 5.46E-02 5.09E-02
  6.72E-02 5.79E-02 2.60E-02
   0.3750  0.5000  0.5000    1  2.74186E-01 kpt; spin; max resid(k); each band:
  1.59E-03 1.51E-03 4.84E-04 2.59E-04 3.66E-04 8.02E-04 8.26E-04 6.21E-04
  7.14E-04 8.27E-04 8.40E-04 8.52E-04 6.59E-04 5.60E-04 3.45E-04 7.23E-04
  7.26E-04 2.30E-04 2.66E-04 3.26E-04 4.08E-04 2.35E-04 4.29E-04 5.57E-03
  4.88E-03 3.31E-04 2.17E-04 2.94E-04 7.98E-04 5.93E-04 1.38E-03 1.39E-03
  1.08E-03 1.57E-03 4.65E-04 1.25E-03 2.81E-04 1.16E-03 9.57E-04 7.25E-04
  3.84E-04 2.67E-04 7.83E-04 1.45E-03 1.47E-03 8.61E-04 5.50E-04 3.01E-04
  1.75E-03 5.46E-03 3.70E-04 4.11E-04 1.32E-03 2.47E-03 5.12E-03 1.07E-03
  5.74E-04 2.60E-03 1.25E-03 6.30E-04 2.21E-02 2.13E-02 4.29E-04 1.48E-03
  2.80E-03 2.94E-03 4.39E-03 2.87E-03 1.44E-03 4.35E-04 1.17E-03 9.99E-04
  1.16E-03 5.68E-04 3.47E-02 2.48E-02 2.29E-02 2.06E-03 7.43E-03 3.15E-02
  1.82E-02 6.65E-02 5.56E-02 1.73E-03 1.19E-02 2.09E-03 2.40E-03 3.22E-03
  4.51E-03 3.09E-03 2.88E-02 1.69E-02 1.72E-02 6.01E-03 1.68E-02 7.28E-03
  9.64E-03 1.12E-02 5.01E-03 1.88E-02 2.74E-01 1.97E-02 1.61E-03 7.16E-03
  1.05E-02 1.19E-02 1.02E-02 1.77E-02 1.30E-02 3.30E-02 1.26E-01 2.58E-02
  1.56E-02 5.91E-02 1.34E-01 8.78E-02 5.14E-02 2.35E-02 3.10E-02 8.86E-02
  4.90E-02 3.61E-02 3.50E-02

 outwf: write wavefunction to file DOSwithoutGeom2Layer_o_WFK, with iomode -1
 prteigrs : about to open file DOSwithoutGeom2Layer_o_EIG
 Fermi (or HOMO) energy (hartree) =   0.24391   Average Vxc (hartree)=  -0.32062
 Eigenvalues (hartree) for nkpt=   2  k points:
 kpt#   1, nband=123, wtk=  0.50000, kpt=  0.1250  0.5000  0.5000 (reduced coord)
  -3.10651   -2.93437   -2.93000   -2.92589   -2.85169   -2.84587   -2.84247   -2.79182
  -2.35949   -2.22938   -2.10963   -2.00131   -1.91642   -1.74699   -1.73694   -1.73092
  -1.68831   -1.67582   -1.66762   -1.66465   -1.66148   -1.65966   -1.65733   -1.65061
  -1.64788   -1.61537   -1.60314   -1.59563   -1.58734   -1.58479   -1.57767   -1.57193
  -1.54568   -1.53017   -1.51355   -1.49019   -1.48353   -1.46609   -1.45661   -1.35261
  -1.34963   -1.34411   -1.25574   -1.24371   -1.23607   -1.06401   -1.05515   -1.03866
  -0.91663   -0.77750   -0.66444   -0.65081   -0.55382   -0.53544   -0.47317   -0.38091
  -0.37179   -0.34027   -0.33740   -0.29287   -0.22952   -0.20330   -0.19083   -0.16957
  -0.16504   -0.15826   -0.15526   -0.13788   -0.12536   -0.11762   -0.10950   -0.09633
  -0.08396   -0.07020   -0.06020   -0.03579   -0.03174   -0.03055   -0.02418   -0.01422
  -0.00474    0.00950    0.01629    0.01832    0.03077    0.04795    0.05166    0.05490
   0.05774    0.05894    0.06231    0.06629    0.07236    0.07444    0.07899    0.09078
   0.09254    0.09602    0.10392    0.10710    0.11444    0.11649    0.12096    0.12438
   0.13041    0.13293    0.13922    0.14263    0.14772    0.15190    0.15985    0.16937
   0.17161    0.17711    0.18094    0.18770    0.19848    0.20570    0.22784    0.24391
   0.26465    0.27527    0.31194
 kpt#   2, nband=123, wtk=  0.50000, kpt=  0.3750  0.5000  0.5000 (reduced coord)
  -3.10647   -2.93434   -2.93000   -2.92588   -2.85167   -2.84595   -2.84247   -2.79181
  -2.35952   -2.22938   -2.10963   -2.00130   -1.91642   -1.74693   -1.73693   -1.73090
  -1.68831   -1.67583   -1.66762   -1.66465   -1.66148   -1.65965   -1.65733   -1.65059
  -1.64788   -1.61531   -1.60312   -1.59563   -1.58734   -1.58478   -1.57766   -1.57194
  -1.54568   -1.53017   -1.51353   -1.49022   -1.48354   -1.46611   -1.45662   -1.35262
  -1.34963   -1.34413   -1.25576   -1.24373   -1.23612   -1.06403   -1.05513   -1.03872
  -0.91646   -0.77756   -0.66414   -0.65062   -0.55331   -0.53619   -0.47303   -0.38232
  -0.37214   -0.34040   -0.33122   -0.29335   -0.23578   -0.20301   -0.19067   -0.17397
  -0.16486   -0.15851   -0.14692   -0.12040   -0.11536   -0.10187   -0.08826   -0.07992
  -0.07153   -0.06356   -0.03702   -0.02698   -0.02433   -0.01973   -0.01276    0.00078
   0.00967    0.01879    0.02003    0.04306    0.04821    0.05512    0.05854    0.05970
   0.06395    0.06544    0.07007    0.07565    0.07914    0.08021    0.08484    0.09407
   0.09920    0.10152    0.10278    0.10800    0.11350    0.11624    0.11864    0.12492
   0.12877    0.13275    0.13654    0.14275    0.14752    0.15466    0.16316    0.16648
   0.17390    0.17901    0.18797    0.19236    0.19790    0.21055    0.21923    0.23199
   0.25158    0.26065    0.27638
 Total charge density [el/Bohr^3]
      Maximum=    1.9574E+00  at reduced coord.    0.1719    0.0313    0.5219
 Next maximum=    1.9568E+00  at reduced coord.    0.1563    0.0156    0.5219
      Minimum=    1.9634E-04  at reduced coord.    0.6406    0.5469    0.4125
 Next minimum=    1.9653E-04  at reduced coord.    0.6563    0.5625    0.4094
   Integrated=    2.4000E+02

 Cartesian components of stress tensor (hartree/bohr^3)
  sigma(1 1)= -4.04157343E-03  sigma(3 2)=  8.45368104E-05
  sigma(2 2)= -5.89500802E-03  sigma(3 1)= -1.42406543E-03
  sigma(3 3)=  8.39031594E-03  sigma(2 1)= -1.31551593E-07

-Cartesian components of stress tensor (GPa)         [Pressure=  1.5164E+01 GPa]
- sigma(1 1)= -1.18907176E+02  sigma(3 2)=  2.48715841E+00
- sigma(2 2)= -1.73437095E+02  sigma(3 1)= -4.18974443E+01
- sigma(3 3)=  2.46851576E+02  sigma(2 1)= -3.87038083E-03

== END DATASET(S) ==============================================================

 -outvars: echo values of variables after computation  --------
            acell      8.6808000000E+00  8.6808000000E+00  4.5000000000E+01 Bohr
              amu      4.78800000E+01  1.59994000E+01  1.06420000E+02
           diemac      1.20000000E+01
             ecut      6.00000000E+01 Hartree
           etotal     -1.4201127034E+03
            fcart     -1.6680465678E-01  2.2274926809E-02  1.0450804326E+00
                      -4.0739760203E-01  7.7256458369E-01  3.0805470933E+00
                      -4.0869708716E-01  1.8470312940E-01  2.7210695757E+00
                      -3.6777610745E-02  3.8413977279E-01  1.2068779463E+00
                       1.6977906668E-01 -2.2316640433E-01 -1.4183164790E+00
                       1.5888403789E-01 -4.2226267223E-01 -1.3230551877E+00
                       2.3282710089E-01 -1.7455560465E-01 -1.1708040822E+00
                       1.1606076896E-01 -2.1901847254E-01 -2.5368328474E-01
                      -1.2073123727E-01 -2.5913909376E-01 -1.5919111597E+00
                       3.1487832464E-02 -1.4918746276E-02 -6.2089289334E-01
                       2.8485380310E-01  7.6774133913E-03 -9.8490269233E-01
                       2.1367779169E-01 -9.5428300025E-02 -1.5506516668E+00
                      -2.1927513150E-01 -5.5970759968E-02 -2.2814016220E-01
                       1.9575557028E+00 -4.8194046033E-02  2.5624392924E+00
                       5.0617911242E-02 -1.7771034793E-01  2.3353708899E-01
                      -1.5600750660E-01 -3.4177876985E-01  6.4436886120E-01
                       2.4332314957E-02  2.4953307311E-01  2.1054214634E-01
                      -1.7683471725E-01  4.1093093649E-01  7.6384042501E-01
                      -1.6938144787E+00  2.3880833613E-02 -2.7061586331E+00
                       1.4626369734E-01 -2.3561451689E-02 -6.1978662063E-01
-          fftalg         112
              ixc          11
              kpt      1.25000000E-01  5.00000000E-01  5.00000000E-01
                       3.75000000E-01  5.00000000E-01  5.00000000E-01
           kptopt           2
         kptrlatt        4    0    0      0    1    0      0    0    1
          kptrlen      8.68080000E+00
P           mkmem           2
            natom          20
            nband         123
            ngfft          64      64     320
             nkpt           2
             nsym           1
           ntypat           3
              occ      2.000000  2.000000  2.000000  2.000000  2.000000  2.000000
                       2.000000  2.000000  2.000000  2.000000  2.000000  2.000000
                       2.000000  2.000000  2.000000  2.000000  2.000000  2.000000
                       2.000000  2.000000  2.000000  2.000000  2.000000  2.000000
                       2.000000  2.000000  2.000000  2.000000  2.000000  2.000000
                       2.000000  2.000000  2.000000  2.000000  2.000000  2.000000
                       2.000000  2.000000  2.000000  2.000000  2.000000  2.000000
                       2.000000  2.000000  2.000000  2.000000  2.000000  2.000000
                       2.000000  2.000000  2.000000  2.000000  2.000000  2.000000
                       2.000000  2.000000  2.000000  2.000000  2.000000  2.000000
                       2.000000  2.000000  2.000000  2.000000  2.000000  2.000000
                       2.000000  2.000000  2.000000  2.000000  2.000000  2.000000
                       2.000000  2.000000  2.000000  2.000000  2.000000  2.000000
                       2.000000  2.000000  2.000000  2.000000  2.000000  2.000000
                       2.000000  2.000000  2.000000  2.000000  2.000000  2.000000
                       2.000000  2.000000  2.000000  2.000000  2.000000  2.000000
                       2.000000  2.000000  2.000000  2.000000  2.000000  2.000000
                       2.000000  2.000000  2.000000  2.000000  2.000000  2.000000
                       2.000000  2.000000  2.000000  2.000000  2.000000  2.000000
                       2.000000  2.000000  2.000000  2.000000  2.000000  2.000000
                       0.000000  0.000000  0.000000
           prtdos           2
           shiftk      5.00000000E-01  5.00000000E-01  5.00000000E-01
          spgroup           1
           strten     -4.0415734306E-03 -5.8950080228E-03  8.3903159444E-03
                       8.4536810383E-05 -1.4240654281E-03 -1.3155159263E-07
           toldfe      1.00000000E-02 Hartree
            typat      1  1  1  1  2  2  2  2  2  2  2  2  3  3  3  3  3  3  3  3
              wtk        0.50000    0.50000
           xangst      0.0000000000E+00  0.0000000000E+00  0.0000000000E+00
                       0.0000000000E+00  0.0000000000E+00  4.5936815123E+00
                       2.2968407562E+00  1.4793678043E+00  2.2968407562E+00
                       2.2968407562E+00  1.4793678043E+00  6.8905222685E+00
                       3.9876836484E+01  0.0000000000E+00  1.4240158683E+00
                       3.9876836484E+01  0.0000000000E+00  6.0176973806E+00
                       3.1696656440E+00  0.0000000000E+00  3.1696656440E+00
                       3.1696656440E+00  0.0000000000E+00  7.7633471563E+00
                       8.7282488785E-01  1.4793678043E+00  3.7208566245E+00
                       8.7282488785E-01  1.4793678043E+00  8.3145381368E+00
                       3.7208566245E+00  1.4793678043E+00  8.7282488785E-01
                       3.7208566245E+00  1.4793678043E+00  5.4665064002E+00
                       8.7282488785E-01  0.0000000000E+00  1.2097837672E+01
                       8.7282488785E-01  0.0000000000E+00  1.5988560180E+01
                       1.9453612542E+00  1.3755961537E+00  1.3473433826E+01
                       1.9453612542E+00  1.3755961537E+00  1.7364156334E+01
                       1.9453612542E+00 -1.3755961537E+00  1.3473433826E+01
                       1.9453612542E+00 -1.3755961537E+00  1.7364156334E+01
                       0.0000000000E+00  0.0000000000E+00  1.4848977062E+01
                       0.0000000000E+00  0.0000000000E+00  1.8739699570E+01
            xcart      0.0000000000E+00  0.0000000000E+00  0.0000000000E+00
                       0.0000000000E+00  0.0000000000E+00  8.6808000000E+00
                       4.3404000000E+00  2.7956000000E+00  4.3404000000E+00
                       4.3404000000E+00  2.7956000000E+00  1.3021200000E+01
                       7.5356300000E+01  0.0000000000E+00  2.6910000000E+00
                       7.5356300000E+01  0.0000000000E+00  1.1371800000E+01
                       5.9898000000E+00  0.0000000000E+00  5.9898000000E+00
                       5.9898000000E+00  0.0000000000E+00  1.4670600000E+01
                       1.6494000000E+00  2.7956000000E+00  7.0314000000E+00
                       1.6494000000E+00  2.7956000000E+00  1.5712200000E+01
                       7.0314000000E+00  2.7956000000E+00  1.6494000000E+00
                       7.0314000000E+00  2.7956000000E+00  1.0330200000E+01
                       1.6494000000E+00  0.0000000000E+00  2.2861600000E+01
                       1.6494000000E+00  0.0000000000E+00  3.0214000000E+01
                       3.6762000000E+00  2.5995000000E+00  2.5461100000E+01
                       3.6762000000E+00  2.5995000000E+00  3.2813500000E+01
                       3.6762000000E+00 -2.5995000000E+00  2.5461100000E+01
                       3.6762000000E+00 -2.5995000000E+00  3.2813500000E+01
                       0.0000000000E+00  0.0000000000E+00  2.8060500000E+01
                       0.0000000000E+00  0.0000000000E+00  3.5412900000E+01
             xred      0.0000000000E+00  0.0000000000E+00  0.0000000000E+00
                       0.0000000000E+00  0.0000000000E+00  1.9290666667E-01
                       5.0000000000E-01  3.2204405124E-01  9.6453333333E-02
                       5.0000000000E-01  3.2204405124E-01  2.8936000000E-01
                       8.6808013086E+00  0.0000000000E+00  5.9800000000E-02
                       8.6808013086E+00  0.0000000000E+00  2.5270666667E-01
                       6.9000552944E-01  0.0000000000E+00  1.3310666667E-01
                       6.9000552944E-01  0.0000000000E+00  3.2601333333E-01
                       1.9000552944E-01  3.2204405124E-01  1.5625333333E-01
                       1.9000552944E-01  3.2204405124E-01  3.4916000000E-01
                       8.0999447056E-01  3.2204405124E-01  3.6653333333E-02
                       8.0999447056E-01  3.2204405124E-01  2.2956000000E-01
                       1.9000552944E-01  0.0000000000E+00  5.0803555556E-01
                       1.9000552944E-01  0.0000000000E+00  6.7142222222E-01
                       4.2348631463E-01  2.9945396738E-01  5.6580222222E-01
                       4.2348631463E-01  2.9945396738E-01  7.2918888889E-01
                       4.2348631463E-01 -2.9945396738E-01  5.6580222222E-01
                       4.2348631463E-01 -2.9945396738E-01  7.2918888889E-01
                       0.0000000000E+00  0.0000000000E+00  6.2356666667E-01
                       0.0000000000E+00  0.0000000000E+00  7.8695333333E-01
            znucl       22.00000    8.00000   46.00000

 Suggested references for the acknowledgment of ABINIT usage.

 Calculation completed.
.Delivered   2 WARNINGs and   2 COMMENTs to log file.

--- !FinalSummary
program: abinit
version: 8.6.3
start_datetime: Mon Apr 23 01:20:15 2018
end_datetime: Mon Apr 23 03:28:09 2018
overall_cpu_time:        6724.9
overall_wall_time:        7674.1
exit_requested_by_user: no
timelimit: 0
pseudos:
    Ti  : ea4ed3d71d7ed9998c7c8ddd5e23a4a6
    O   : abbcf0645b4a6d69360cd16bcad3e730
    Pd  : 4144628137bc01fa80f914e5e2c5b797
usepaw: 0
mpi_procs: 1
omp_threads: 1
num_warnings: 2
num_comments: 2
...