.Version 8.6.3 of ABINIT
.(sequential version, prepared for a x86_64_linux_gnu5.4 computer)

 ABINIT is a project of the Universite Catholique de Louvain,
 Corning Inc. and other collaborators, see ~abinit/doc/developers/contributors.txt .
 Please read ~abinit/doc/users/acknowledgments.html for suggested
 acknowledgments of the ABINIT effort.

.Starting date : Fri 27 Apr 2018.
- ( at 11h07 )

 === Build Information ===
  Version       : 8.6.3
  Build target  : x86_64_linux_gnu5.4
  Build date    : 20180412

 === Optimizations ===
  Debug level        : basic
  Optimization level : standard
  Architecture       : unknown_unknown

 === Multicore ===
  Parallel build : no
  Parallel I/O   : no
  openMP support : no
  GPU support    : no

 === Connectors / Fallbacks ===
  Connectors on : yes
  Fallbacks on  : yes
  DFT flavor    : none
  FFT flavor    : none
  LINALG flavor : netlib-fallback
  MATH flavor   : none
  TIMER flavor  : abinit
  TRIO flavor   : none

 === Experimental features ===
  Bindings            : @enable_bindings@
  Exports             : no
  GW double-precision : no

 Default optimizations:
   -O2 -mtune=native -march=native

 Optimizations for 20_datashare:
   -O0

 CPP options activated during the build:

                    CC_GNU                   CXX_GNU                    FC_GNU

 HAVE_FC_ALLOCATABLE_DT...             HAVE_FC_ASYNC         HAVE_FC_BACKTRACE

  HAVE_FC_COMMAND_ARGUMENT      HAVE_FC_COMMAND_LINE        HAVE_FC_CONTIGUOUS

           HAVE_FC_CPUTIME              HAVE_FC_EXIT             HAVE_FC_FLUSH

             HAVE_FC_GAMMA            HAVE_FC_GETENV   HAVE_FC_IEEE_EXCEPTIONS

          HAVE_FC_INT_QUAD             HAVE_FC_IOMSG     HAVE_FC_ISO_C_BINDING

  HAVE_FC_ISO_FORTRAN_2008        HAVE_FC_LONG_LINES        HAVE_FC_MOVE_ALLOC

           HAVE_FC_PRIVATE         HAVE_FC_PROTECTED         HAVE_FC_STREAM_IO

            HAVE_FC_SYSTEM          HAVE_FORTRAN2003        HAVE_LIBPAW_ABINIT

      HAVE_LIBTETRA_ABINIT             HAVE_OS_LINUX         HAVE_TIMER_ABINIT

              USE_MACROAVE

- input  file    -> RutileGeom2.in
- output file    -> RutileGeom2.out
- root for input  files -> RutileGeom2_i
- root for output files -> RutileGeom2_o

-instrng: 94 lines of input have been read from file RutileGeom2.in

 Please give name of formatted atomic psp file
 iofn2 : for atom type 1, psp file is ../../../Psps_for_tests/22ti.pspnc

 Please give name of formatted atomic psp file
 iofn2 : for atom type 2, psp file is ../../../Psps_for_tests/8o.pspnc
  read the values zionpsp=  4.0 , pspcod=   1 , lmax=   2
  read the values zionpsp=  6.0 , pspcod=   1 , lmax=   1

 inpspheads: deduce mpsang = 3, n1xccc = 2501.
 invars1 : treat image number: 1

 symlatt : the Bravais lattice is tP (primitive tetragonal)
  xcart  is defined in input file
 ingeo : takes atomic coordinates from input array xcart
 symfind : exit, nsym=8
   symrel matrices, symafm and tnons are :
   1       1   0   0     0   1   0     0   0   1       1      0.0000  0.0000  0.0000
   2       1   0   0     0  -1   0     0   0  -1       1      0.5000 -0.5000  0.5000
   3      -1   0   0     0   1   0     0   0  -1       1      0.0000  0.0000  0.0000
   4      -1   0   0     0  -1   0     0   0   1       1      0.5000 -0.5000  0.5000
   5       0   0   1     0   1   0     1   0   0       1      0.0000  0.0000  0.0000
   6       0   0   1     0  -1   0    -1   0   0       1      0.5000 -0.5000  0.5000
   7       0   0  -1     0   1   0    -1   0   0       1      0.0000  0.0000  0.0000
   8       0   0  -1     0  -1   0     1   0   0       1      0.5000 -0.5000  0.5000

 symlatt : the Bravais lattice is tP (primitive tetragonal)

 symlatt : the Bravais lattice is tP (primitive tetragonal)
 symspgr : spgroup= 113  P-4 2_1 m   (=D2d^3)
 symspgr : optical characteristics = uniaxial
 Optical axis (in reduced coordinates, real space ) :   0   1   0
 ingeo : angdeg(1:3)=   90.00000000   90.00000000   90.00000000
 invars2: take the default value of fband=  1.25000000E-01
 chkneu : initialized the occupation numbers for occopt=    1, spin-unpolarized or antiferromagnetic case :
  2.00  2.00  2.00  2.00  2.00  2.00  2.00  2.00  2.00  2.00  2.00  2.00
  2.00  2.00  2.00  2.00  0.00
mpi_setup: mkmem  undefined in the input file.Use default mkmem  = nkpt
 mpi_setup: With nkpt_me=8 and mkmem  = 8, ground state wf handled in core.
mpi_setup: mkqmem undefined in the input file.Use default mkqmem = nkpt
 mpi_setup: With nkpt_me=8 and mkqmem = 8, ground state wf handled in core.
mpi_setup: mk1mem undefined in the input file.Use default mk1mem = nkpt
 mpi_setup: With nkpt_me=8 and mk1mem = 8, ground state wf handled in core.
 For input ecut=  2.880000E+01 best grid ngfft=      45      30      45
       max ecut=  3.169535E+01

 ==== FFT mesh ====
  FFT mesh divisions ........................    45   30   45
  Augmented FFT divisions ...................    45   31   45
  FFT algorithm .............................   112
  FFT cache size ............................    16
 getmpw: optimal value of mpw= 3122

 Symmetries : space group P-4 2_1 m (#113); Bravais tP (primitive tetrag.)

 getdim_nloc : deduce lmnmax  =   8, lnmax  =   2,
                      lmnmaxso=   8, lnmaxso=   2.
     intxc =       0    ionmov =       2      iscf =       7    lmnmax =       2
     lnmax =       2     mgfft =      45  mpssoang =       3    mqgrid =    3001
     natom =       6  nloc_mem =       1    nspden =       1   nspinor =       1
    nsppol =       1      nsym =       8    n1xccc =    2501    ntypat =       2
    occopt =       1   xclevel =       2
-    mband =          17        mffmem =           1         mkmem =           8
       mpw =        3122          nfft =       60750          nkpt =           8
  Rough estimation (10% accuracy) of disk space for files :

 The job will continue.
------------- Echo of variables that govern the present computation ------------
-
- outvars: echo of selected default values
-   iomode0 =  0 , fftalg0 =112 , wfoptalg0 =  0
-
- outvars: echo of global parameters not present in the input file
-  max_nthreads =    0
-
 -outvars: echo values of preprocessed input variables --------
            acell      8.6808000000E+00  5.5911000000E+00  8.6808000000E+00 Bohr
              amu      4.78800000E+01  1.59994000E+01
           diemac      1.20000000E+01
          dilatmx      1.20000000E+00
             ecut      2.00000000E+01 Hartree
           ecutsm      5.00000000E-01 Hartree
-          fftalg         112
           getwfk          -1
           ionmov           2
              ixc          11
              kpt     -2.50000000E-01  5.00000000E-01  0.00000000E+00
                       5.00000000E-01 -2.50000000E-01  0.00000000E+00
                      -2.50000000E-01 -2.50000000E-01  2.50000000E-01
                      -2.50000000E-01  0.00000000E+00  0.00000000E+00
                       5.00000000E-01  5.00000000E-01  2.50000000E-01
                       0.00000000E+00 -2.50000000E-01  0.00000000E+00
                       5.00000000E-01 -2.50000000E-01  5.00000000E-01
                       5.00000000E-01  0.00000000E+00  2.50000000E-01
         kptrlatt        2   -2    2      0    4    0     -2   -2    2
          kptrlen      2.23644000E+01
P           mkmem           8
            natom           6
            nband          17
            ngfft          45      30      45
             nkpt           8
            nstep          20
             nsym           8
            ntime          20
           ntypat           2
              occ      2.000000  2.000000  2.000000  2.000000  2.000000  2.000000
                       2.000000  2.000000  2.000000  2.000000  2.000000  2.000000
                       2.000000  2.000000  2.000000  2.000000  0.000000
          optcell           1
           shiftk      5.00000000E-01  0.00000000E+00  5.00000000E-01
          spgroup         113
           symrel      1  0  0   0  1  0   0  0  1       1  0  0   0 -1  0   0  0 -1
                      -1  0  0   0  1  0   0  0 -1      -1  0  0   0 -1  0   0  0  1
                       0  0  1   0  1  0   1  0  0       0  0  1   0 -1  0  -1  0  0
                       0  0 -1   0  1  0  -1  0  0       0  0 -1   0 -1  0   1  0  0
            tnons      0.0000000  0.0000000  0.0000000     0.5000000 -0.4999911  0.5000000
                       0.0000000  0.0000000  0.0000000     0.5000000 -0.4999911  0.5000000
                       0.0000000  0.0000000  0.0000000     0.5000000 -0.4999911  0.5000000
                       0.0000000  0.0000000  0.0000000     0.5000000 -0.4999911  0.5000000
           toldfe      1.00000000E-04 Hartree
            typat      1  1  2  2  2  2
              wtk        0.12500    0.12500    0.25000    0.12500    0.12500    0.06250
                         0.06250    0.12500
           xangst      0.0000000000E+00  0.0000000000E+00  0.0000000000E+00
                       2.2968407562E+00  1.4793678043E+00  2.2968407562E+00
                       3.1696656440E+00  0.0000000000E+00  1.4240158683E+00
                       1.4240158683E+00  0.0000000000E+00  3.1696656440E+00
                       8.7282488785E-01  1.4793678043E+00  8.7282488785E-01
                       3.7208566245E+00  1.4793678043E+00  3.7208566245E+00
            xcart      0.0000000000E+00  0.0000000000E+00  0.0000000000E+00
                       4.3404000000E+00  2.7956000000E+00  4.3404000000E+00
                       5.9898000000E+00  0.0000000000E+00  2.6910000000E+00
                       2.6910000000E+00  0.0000000000E+00  5.9898000000E+00
                       1.6494000000E+00  2.7956000000E+00  1.6494000000E+00
                       7.0314000000E+00  2.7956000000E+00  7.0314000000E+00
             xred      0.0000000000E+00  0.0000000000E+00  0.0000000000E+00
                       5.0000000000E-01  5.0000894278E-01  5.0000000000E-01
                       6.9000552944E-01  0.0000000000E+00  3.0999447056E-01
                       3.0999447056E-01  0.0000000000E+00  6.9000552944E-01
                       1.9000552944E-01  5.0000894278E-01  1.9000552944E-01
                       8.0999447056E-01  5.0000894278E-01  8.0999447056E-01
            znucl       22.00000    8.00000

 chkinp: Checking input parameters for consistency.

 chkinp: WARNING -
   Chksymbreak=1 . Found potentially symmetry-breaking value of tnons,
   which is neither a rational fraction in 1/8th nor in 1/12th :
   for the symmetry number    2
   symrel is   1  0  0  0 -1  0  0  0 -1
   tnons is     5.000000E-01   -4.999911E-01    5.000000E-01
   Please, read the description of the input variable chksymbreak,
   then, if you feel confident, you might switch it to zero, or consult with the forum.

[...]

 chkinp: WARNING -
   Chksymbreak=1 . Found potentially symmetry-breaking value of tnons,
   which is neither a rational fraction in 1/8th nor in 1/12th :
   for the symmetry number    6
   symrel is   0  0  1  0 -1  0 -1  0  0
   tnons is     5.000000E-01   -4.999911E-01    5.000000E-01
   Please, read the description of the input variable chksymbreak,
[...]
 -2.2769E-01 -2.2768E-01 -2.2206E-01 -2.1440E-01 -1.8738E-01 -1.7157E-01
 -1.7157E-01 -1.4899E-01 -1.4898E-01 -1.1861E-01 -3.4782E-02
 non-scf iterations; kpt #     7  , k= (  0.50000 -0.25000  0.50000  ), band residuals:
 res:  1.24E-08  1.09E-08  1.01E-08  1.01E-08  5.96E-08  6.14E-08  7.71E-08  7.72E-08
 res:  1.35E-07  1.35E-07  1.65E-07  1.65E-07  4.38E-07  4.16E-07  1.55E-07  1.55E-07
 res:  1.41E-05
 ene: -7.30E-01 -7.30E-01 -7.18E-01 -7.18E-01 -2.64E-01 -2.64E-01 -2.42E-01 -2.42E-01
 ene: -1.94E-01 -1.94E-01 -1.68E-01 -1.68E-01 -1.54E-01 -1.54E-01 -1.53E-01 -1.53E-01
 ene: -2.27E-02
 vtowfk : number of one-way 3D ffts skipped in vtowfk until now =999
     eigenvalues (hartree) for   17  bands
              after    2 non-SCF iterations with    4 CG line minimizations
 -7.2976E-01 -7.2976E-01 -7.1823E-01 -7.1823E-01 -2.6438E-01 -2.6436E-01
 -2.4212E-01 -2.4210E-01 -1.9391E-01 -1.9390E-01 -1.6827E-01 -1.6827E-01
 -1.5377E-01 -1.5377E-01 -1.5324E-01 -1.5324E-01 -2.2687E-02
 non-scf iterations; kpt #     8  , k= (  0.50000  0.00000  0.25000  ), band residuals:
 res:  1.04E-08  1.11E-08  8.00E-09  8.47E-09  7.77E-08  7.37E-08  5.75E-08  5.77E-08
 res:  6.51E-08  6.50E-08  1.72E-07  1.84E-07  9.15E-08  9.14E-08  1.04E-07  1.22E-07
 res:  5.06E-08
 ene: -7.38E-01 -7.38E-01 -7.16E-01 -7.16E-01 -2.67E-01 -2.67E-01 -2.16E-01 -2.16E-01
 ene: -2.03E-01 -2.03E-01 -1.74E-01 -1.74E-01 -1.55E-01 -1.55E-01 -1.36E-01 -1.36E-01
 ene: -3.10E-02
 vtowfk : number of one-way 3D ffts skipped in vtowfk until now =1000
     eigenvalues (hartree) for   17  bands
              after    2 non-SCF iterations with    4 CG line minimizations
 -7.3829E-01 -7.3829E-01 -7.1602E-01 -7.1602E-01 -2.6737E-01 -2.6736E-01
 -2.1569E-01 -2.1569E-01 -2.0284E-01 -2.0284E-01 -1.7439E-01 -1.7439E-01
 -1.5506E-01 -1.5506E-01 -1.3631E-01 -1.3631E-01 -3.0958E-02
 Total charge density [el/Bohr^3]
      Maximum=    8.9420E-01  at reduced coord.    0.7556    0.5333    0.8222
      Minimum=    2.9887E-04  at reduced coord.    0.0000    0.0000    0.0000
   Integrated=    3.2000E+01
 ETOT  3  -74.617241098416    -5.376E-05 1.409E-05 2.252E-04
 scprqt: <Vxc>= -3.7067949E-01 hartree

 At SCF step    3, etot is converged :
  for the second time, diff in etot=  5.376E-05 < toldfe=  1.000E-04

[...]

 fftdatar_write: About to write data to: RutileGeom2_o_TIM20_DEN with iomode IO_MODE_FORTRAN

---OUTPUT-----------------------------------------------------------------------

 Cartesian coordinates (xcart) [bohr]
  1.05879432005540E-19  2.11725034720582E-04  1.11246114440153E-19
  4.67046997469998E+00  3.00798241865510E+00  4.67046997469998E+00
  6.50919273871250E+00  9.72394298975747E-06  2.83174721068745E+00
  2.83174721068745E+00  9.72394298975752E-06  6.50919273871250E+00
  1.83872276401253E+00  3.00818441974682E+00  1.83872276401253E+00
  7.50221718538745E+00  3.00818441974682E+00  7.50221718538744E+00
 Reduced coordinates (xred)
  1.13349869048608E-20  3.51920141170497E-05  1.19095203526385E-20
  5.00000000000000E-01  4.99973750769951E-01  5.00000000000000E-01
  6.96845582347485E-01  1.61627149770242E-06  3.03154417652514E-01
  3.03154417652514E-01  1.61627149770243E-06  6.96845582347485E-01
  1.96845582347486E-01  5.00007326512569E-01  1.96845582347485E-01
  8.03154417652515E-01  5.00007326512569E-01  8.03154417652515E-01
 Cartesian forces (fcart) [Ha/bohr]; max,rms= 2.33555E-05 1.67502E-05 (free atoms)
 -1.12937726317464E-21 -2.33555121029152E-05 -1.68903966730176E-31
 -1.12937726317464E-21  2.33555121029152E-05 -1.26677975047632E-31
  2.20219773882414E-05 -4.45873706171184E-06 -2.20219773882414E-05
 -2.20219773882414E-05 -4.45873706171184E-06  2.20219773882414E-05
  2.20219773882414E-05  4.45873706171184E-06  2.20219773882414E-05
 -2.20219773882414E-05  4.45873706171184E-06 -2.20219773882414E-05
 Reduced forces (fred)
  1.05494451955320E-20  1.40513316301239E-04  1.57772181044202E-30
  1.05494451955320E-20 -1.40513316301239E-04  1.18329135783152E-30
 -2.05705968350606E-04  2.68250136539791E-05  2.05705968350606E-04
  2.05705968350606E-04  2.68250136539792E-05 -2.05705968350606E-04
 -2.05705968350606E-04 -2.68250136539792E-05 -2.05705968350606E-04
  2.05705968350606E-04 -2.68250136539791E-05  2.05705968350606E-04
 Scale of Primitive Cell (acell) [bohr]
  9.34093994939996E+00  6.01628068278156E+00  9.34093994939996E+00
 Real space primitive translations (rprimd) [bohr]
  9.34093994939996E+00  0.00000000000000E+00  0.00000000000000E+00
  0.00000000000000E+00  6.01628068278156E+00  0.00000000000000E+00
  0.00000000000000E+00  0.00000000000000E+00  9.34093994939996E+00
 Unitary Cell Volume (ucvol) [Bohr^3]=  5.24939495835396E+02
 Angles (23,13,12)= [degrees]
  9.00000000000000E+01  9.00000000000000E+01  9.00000000000000E+01
 Lengths [Bohr]
  9.34093994939996E+00  6.01628068278156E+00  9.34093994939996E+00
 Stress tensor in cartesian coordinates (strten) [Ha/bohr^3]
  2.45406038728812E-04  0.00000000000000E+00  0.00000000000000E+00
  0.00000000000000E+00 -4.85077074776772E-04  0.00000000000000E+00
  0.00000000000000E+00  0.00000000000000E+00  2.45406038728815E-04
 Total energy (etotal) [Ha]= -7.46172410984162E+01

 Difference of energy with previous step (new-old):
           Absolute (Ha)=-9.49620E-07
           Relative     =-1.27265E-08

 fconv : WARNING -
  ntime=   20 was not enough Broyd/MD steps to converge gradients:
  max grad (force/stress) = 1.9117E-04 > tolmxf= 5.0000E-05 ha/bohr (free atoms)

--- !RelaxConvergenceWarning
message: |

     fconv : WARNING -
      ntime=   20 was not enough Broyd/MD steps to converge gradients:
      max grad (force/stress) = 1.9117E-04 > tolmxf= 5.0000E-05 ha/bohr (free atoms)

...
 Geometry Optimization Precondition:           0

 ----iterations are completed or convergence reached----

 === Gap info ===
  >>>> For spin  1
   Minimum optical gap =   2.1753 [eV], located at k-point      :  -0.2500  0.0000  0.0000
   Fundamental gap     =   2.0896 [eV], Top of valence bands at :  -0.2500  0.0000  0.0000
                                        Bottom of conduction at :  -0.2500 -0.2500  0.2500
 Mean square residual over all n,k,spin=   2.0370E-07; max=  1.4088E-05
  -0.2500  0.5000  0.0000    1  2.23136E-07 kpt; spin; max resid(k); each band:
  8.37E-09 8.37E-09 1.47E-08 1.47E-08 5.66E-08 5.73E-08 8.64E-08 8.65E-08
  9.08E-08 9.09E-08 7.91E-08 7.90E-08 2.23E-07 2.14E-07 1.84E-07 8.07E-08
  8.68E-08
   0.5000 -0.2500  0.0000    1  1.41867E-06 kpt; spin; max resid(k); each band:
  7.92E-09 7.93E-09 1.45E-08 1.47E-08 6.01E-08 6.01E-08 9.08E-08 9.05E-08
  1.15E-07 1.15E-07 8.18E-08 7.74E-08 3.08E-07 3.01E-07 1.24E-07 3.49E-07
  1.42E-06
  -0.2500 -0.2500  0.2500    1  4.07336E-07 kpt; spin; max resid(k); each band:
  7.55E-09 9.71E-09 9.39E-09 1.53E-08 5.59E-08 5.90E-08 8.58E-08 8.21E-08
  1.08E-07 4.65E-08 1.95E-07 1.56E-07 1.38E-08 4.07E-07 2.16E-07 4.21E-08
  3.56E-08
  -0.2500  0.0000  0.0000    1  2.02693E-07 kpt; spin; max resid(k); each band:
  6.89E-09 1.10E-08 4.25E-09 1.26E-08 4.71E-08 8.39E-08 9.70E-08 6.39E-08
  5.87E-08 6.87E-08 8.43E-08 4.61E-08 1.00E-07 2.03E-07 1.76E-07 2.79E-08
  5.14E-08
   0.5000  0.5000  0.2500    1  2.65223E-07 kpt; spin; max resid(k); each band:
  8.13E-09 8.14E-09 1.37E-08 1.37E-08 3.48E-08 3.48E-08 6.10E-08 6.11E-08
  1.22E-07 1.21E-07 9.12E-08 9.15E-08 2.60E-07 2.65E-07 2.39E-08 3.21E-08
  4.26E-08
   0.0000 -0.2500  0.0000    1  4.32477E-07 kpt; spin; max resid(k); each band:
  6.67E-09 1.50E-08 7.98E-09 7.98E-09 3.91E-08 8.40E-08 1.03E-07 1.03E-07
  1.78E-07 4.51E-08 7.09E-08 4.16E-09 4.15E-09 4.07E-07 4.32E-07 7.19E-09
  9.94E-08
   0.5000 -0.2500  0.5000    1  1.40883E-05 kpt; spin; max resid(k); each band:
  1.24E-08 1.09E-08 1.01E-08 1.01E-08 5.96E-08 6.14E-08 7.71E-08 7.72E-08
  1.35E-07 1.35E-07 1.65E-07 1.65E-07 4.38E-07 4.16E-07 1.55E-07 1.55E-07
  1.41E-05
   0.5000  0.0000  0.2500    1  1.83622E-07 kpt; spin; max resid(k); each band:
  1.04E-08 1.11E-08 8.00E-09 8.47E-09 7.77E-08 7.37E-08 5.75E-08 5.77E-08
  6.51E-08 6.50E-08 1.72E-07 1.84E-07 9.15E-08 9.14E-08 1.04E-07 1.22E-07
  5.06E-08

 outwf: write wavefunction to file RutileGeom2_o_WFK, with iomode -1
 prteigrs : about to open file RutileGeom2_o_EIG
 Fermi (or HOMO) energy (hartree) =  -0.11283   Average Vxc (hartree)=  -0.37068
 Eigenvalues (hartree) for nkpt=   8  k points:
 kpt#   1, nband= 17, wtk=  0.12500, kpt= -0.2500  0.5000  0.0000 (reduced coord)
  -0.72384   -0.72384   -0.71776   -0.71776   -0.24925   -0.24921   -0.23825   -0.23823
  -0.21233   -0.21231   -0.19691   -0.19690   -0.16055   -0.16054   -0.14970   -0.14969
  -0.03154
 kpt#   2, nband= 17, wtk=  0.12500, kpt=  0.5000 -0.2500  0.0000 (reduced coord)
  -0.73221   -0.73221   -0.71582   -0.71582   -0.24590   -0.24590   -0.23053   -0.23051
  -0.21746   -0.21745   -0.19356   -0.19356   -0.16426   -0.16425   -0.12958   -0.12958
  -0.02684
 kpt#   3, nband= 17, wtk=  0.25000, kpt= -0.2500 -0.2500  0.2500 (reduced coord)
  -0.73869   -0.72401   -0.71704   -0.71605   -0.26409   -0.24309   -0.23907   -0.22980
  -0.21723   -0.19938   -0.19232   -0.18525   -0.16962   -0.15074   -0.14227   -0.12373
  -0.03604
 kpt#   4, nband= 17, wtk=  0.12500, kpt= -0.2500  0.0000  0.0000 (reduced coord)
  -0.75215   -0.72593   -0.71488   -0.71430   -0.28070   -0.25476   -0.23096   -0.21413
  -0.21406   -0.20018   -0.19458   -0.17053   -0.14735   -0.13966   -0.12887   -0.11283
  -0.03289
 kpt#   5, nband= 17, wtk=  0.12500, kpt=  0.5000  0.5000  0.2500 (reduced coord)
  -0.72208   -0.72208   -0.71925   -0.71925   -0.26081   -0.26077   -0.24079   -0.24076
  -0.21119   -0.21118   -0.19709   -0.19709   -0.14962   -0.14961   -0.13144   -0.13143
  -0.03369
 kpt#   6, nband= 17, wtk=  0.06250, kpt=  0.0000 -0.2500  0.0000 (reduced coord)
  -0.74565   -0.71773   -0.71583   -0.71583   -0.27076   -0.24831   -0.22769   -0.22768
  -0.22206   -0.21440   -0.18738   -0.17157   -0.17157   -0.14899   -0.14898   -0.11861
  -0.03478
 kpt#   7, nband= 17, wtk=  0.06250, kpt=  0.5000 -0.2500  0.5000 (reduced coord)
  -0.72976   -0.72976   -0.71823   -0.71823   -0.26438   -0.26436   -0.24212   -0.24210
  -0.19391   -0.19390   -0.16827   -0.16827   -0.15377   -0.15377   -0.15324   -0.15324
  -0.02269
 kpt#   8, nband= 17, wtk=  0.12500, kpt=  0.5000  0.0000  0.2500 (reduced coord)
  -0.73829   -0.73829   -0.71602   -0.71602   -0.26737   -0.26736   -0.21569   -0.21569
  -0.20284   -0.20284   -0.17439   -0.17439   -0.15506   -0.15506   -0.13631   -0.13631
  -0.03096
 Total charge density [el/Bohr^3]
      Maximum=    8.9420E-01  at reduced coord.    0.7556    0.5333    0.8222
 Next maximum=    8.9420E-01  at reduced coord.    0.8222    0.5333    0.7556
      Minimum=    2.9887E-04  at reduced coord.    0.0000    0.0000    0.0000
 Next minimum=    8.7995E-04  at reduced coord.    0.5111    0.5000    0.4889
   Integrated=    3.2000E+01

 Cartesian components of stress tensor (hartree/bohr^3)
  sigma(1 1)=  2.45406039E-04  sigma(3 2)=  0.00000000E+00
  sigma(2 2)= -4.85077075E-04  sigma(3 1)=  0.00000000E+00
  sigma(3 3)=  2.45406039E-04  sigma(2 1)=  0.00000000E+00

-Cartesian components of stress tensor (GPa)         [Pressure= -5.6243E-02 GPa]
- sigma(1 1)=  7.22009372E+00  sigma(3 2)=  0.00000000E+00
- sigma(2 2)= -1.42714579E+01  sigma(3 1)=  0.00000000E+00
- sigma(3 3)=  7.22009372E+00  sigma(2 1)=  0.00000000E+00

== END DATASET(S) ==============================================================

 -outvars: echo values of variables after computation  --------
            acell      9.3409399494E+00  6.0162806828E+00  9.3409399494E+00 Bohr
              amu      4.78800000E+01  1.59994000E+01
           diemac      1.20000000E+01
          dilatmx      1.20000000E+00
             ecut      2.00000000E+01 Hartree
           ecutsm      5.00000000E-01 Hartree
           etotal     -7.4617241098E+01
            fcart     -1.1293772632E-21 -2.3355512103E-05 -1.6890396673E-31
                      -1.1293772632E-21  2.3355512103E-05 -1.2667797505E-31
                       2.2021977388E-05 -4.4587370617E-06 -2.2021977388E-05
                      -2.2021977388E-05 -4.4587370617E-06  2.2021977388E-05
                       2.2021977388E-05  4.4587370617E-06  2.2021977388E-05
                      -2.2021977388E-05  4.4587370617E-06 -2.2021977388E-05
-          fftalg         112
           getwfk          -1
           ionmov           2
              ixc          11
              kpt     -2.50000000E-01  5.00000000E-01  0.00000000E+00
                       5.00000000E-01 -2.50000000E-01  0.00000000E+00
                      -2.50000000E-01 -2.50000000E-01  2.50000000E-01
                      -2.50000000E-01  0.00000000E+00  0.00000000E+00
                       5.00000000E-01  5.00000000E-01  2.50000000E-01
                       0.00000000E+00 -2.50000000E-01  0.00000000E+00
                       5.00000000E-01 -2.50000000E-01  5.00000000E-01
                       5.00000000E-01  0.00000000E+00  2.50000000E-01
         kptrlatt        2   -2    2      0    4    0     -2   -2    2
          kptrlen      2.23644000E+01
P           mkmem           8
            natom           6
            nband          17
            ngfft          45      30      45
             nkpt           8
            nstep          20
             nsym           8
            ntime          20
           ntypat           2
              occ      2.000000  2.000000  2.000000  2.000000  2.000000  2.000000
                       2.000000  2.000000  2.000000  2.000000  2.000000  2.000000
                       2.000000  2.000000  2.000000  2.000000  0.000000
          optcell           1
           shiftk      5.00000000E-01  0.00000000E+00  5.00000000E-01
          spgroup         113
           strten      2.4540603873E-04 -4.8507707478E-04  2.4540603873E-04
                       0.0000000000E+00  0.0000000000E+00  0.0000000000E+00
           symrel      1  0  0   0  1  0   0  0  1       1  0  0   0 -1  0   0  0 -1
                      -1  0  0   0  1  0   0  0 -1      -1  0  0   0 -1  0   0  0  1
                       0  0  1   0  1  0   1  0  0       0  0  1   0 -1  0  -1  0  0
                       0  0 -1   0  1  0  -1  0  0       0  0 -1   0 -1  0   1  0  0
            tnons      0.0000000  0.0000000  0.0000000     0.5000000 -0.4999911  0.5000000
                       0.0000000  0.0000000  0.0000000     0.5000000 -0.4999911  0.5000000
                       0.0000000  0.0000000  0.0000000     0.5000000 -0.4999911  0.5000000
                       0.0000000  0.0000000  0.0000000     0.5000000 -0.4999911  0.5000000
           toldfe      1.00000000E-04 Hartree
            typat      1  1  2  2  2  2
              wtk        0.12500    0.12500    0.25000    0.12500    0.12500    0.06250
                         0.06250    0.12500
           xangst      5.6028982276E-20  1.1204006286E-04  5.8868908306E-20
                       2.4715062640E+00  1.5917557398E+00  2.4715062640E+00
                       3.4445164436E+00  5.1456890078E-06  1.4984960844E+00
                       1.4984960844E+00  5.1456890078E-06  3.4445164436E+00
                       9.7301017963E-01  1.5918626342E+00  9.7301017963E-01
                       3.9700023484E+00  1.5918626342E+00  3.9700023484E+00
            xcart      1.0587943201E-19  2.1172503472E-04  1.1124611444E-19
                       4.6704699747E+00  3.0079824187E+00  4.6704699747E+00
                       6.5091927387E+00  9.7239429898E-06  2.8317472107E+00
                       2.8317472107E+00  9.7239429898E-06  6.5091927387E+00
                       1.8387227640E+00  3.0081844197E+00  1.8387227640E+00
                       7.5022171854E+00  3.0081844197E+00  7.5022171854E+00
             xred      1.1334986905E-20  3.5192014117E-05  1.1909520353E-20
                       5.0000000000E-01  4.9997375077E-01  5.0000000000E-01
                       6.9684558235E-01  1.6162714977E-06  3.0315441765E-01
                       3.0315441765E-01  1.6162714977E-06  6.9684558235E-01
                       1.9684558235E-01  5.0000732651E-01  1.9684558235E-01
                       8.0315441765E-01  5.0000732651E-01  8.0315441765E-01
            znucl       22.00000    8.00000

 Suggested references for the acknowledgment of ABINIT usage.

 Calculation completed.
.Delivered   7 WARNINGs and  22 COMMENTs to log file.

--- !FinalSummary
program: abinit
version: 8.6.3
start_datetime: Fri Apr 27 11:07:55 2018
end_datetime: Fri Apr 27 11:11:33 2018
overall_cpu_time:         217.0
overall_wall_time:         218.0
exit_requested_by_user: no
timelimit: 0
pseudos:
    Ti  : 9d5151159dba5b2d9be995f71cdbe165
    O   : f9a33d255b992d3a483d25bc79688495
usepaw: 0
mpi_procs: 1
omp_threads: 1
num_warnings: 7
num_comments: 22
...