.Version 8.6.3 of ABINIT
.(sequential version, prepared for a x86_64_linux_gnu5.4 computer)

 ABINIT is a project of the Universite Catholique de Louvain,
 Corning Inc. and other collaborators, see ~abinit/doc/developers/contributors.txt .
 Please read ~abinit/doc/users/acknowledgments.html for suggested
 acknowledgments of the ABINIT effort.

.Starting date : Fri 27 Apr 2018.
- ( at 11h07 )

- input  file    -> RutileGeom2.in
- output file    -> RutileGeom2.out
- root for input  files -> RutileGeom2_i
- root for output files -> RutileGeom2_o

 Symmetries : space group P-4 2_1 m (#113); Bravais tP (primitive tetrag.)
     intxc =       0    ionmov =       2      iscf =       7    lmnmax =       2
     lnmax =       2     mgfft =      45  mpssoang =       3    mqgrid =    3001
     natom =       6  nloc_mem =       1    nspden =       1   nspinor =       1
    nsppol =       1      nsym =       8    n1xccc =    2501    ntypat =       2
    occopt =       1   xclevel =       2
-    mband =          17        mffmem =           1         mkmem =           8
       mpw =        3122          nfft =       60750          nkpt =           8
  Rough estimation (10% accuracy) of disk space for files :

------------- Echo of variables that govern the present computation ------------
-
- outvars: echo of selected default values
-   iomode0 =  0 , fftalg0 =112 , wfoptalg0 =  0
-
- outvars: echo of global parameters not present in the input file
-  max_nthreads =    0
-
 -outvars: echo values of preprocessed input variables --------
            acell      8.6808000000E+00  5.5911000000E+00  8.6808000000E+00 Bohr
              amu      4.78800000E+01  1.59994000E+01
           diemac      1.20000000E+01
          dilatmx      1.20000000E+00
             ecut      2.00000000E+01 Hartree
           ecutsm      5.00000000E-01 Hartree
-          fftalg         112
           getwfk          -1
           ionmov           2
              ixc          11
              kpt     -2.50000000E-01  5.00000000E-01  0.00000000E+00
                       5.00000000E-01 -2.50000000E-01  0.00000000E+00
                      -2.50000000E-01 -2.50000000E-01  2.50000000E-01
                      -2.50000000E-01  0.00000000E+00  0.00000000E+00
                       5.00000000E-01  5.00000000E-01  2.50000000E-01
                       0.00000000E+00 -2.50000000E-01  0.00000000E+00
                       5.00000000E-01 -2.50000000E-01  5.00000000E-01
                       5.00000000E-01  0.00000000E+00  2.50000000E-01
         kptrlatt        2   -2    2      0    4    0     -2   -2    2
          kptrlen      2.23644000E+01
P           mkmem           8
            natom           6
            nband          17
            ngfft          45      30      45
             nkpt           8
            nstep          20
             nsym           8
            ntime          20
           ntypat           2
              occ      2.000000  2.000000  2.000000  2.000000  2.000000  2.000000
                       2.000000  2.000000  2.000000  2.000000  2.000000  2.000000
                       2.000000  2.000000  2.000000  2.000000  0.000000
          optcell           1
           shiftk      5.00000000E-01  0.00000000E+00  5.00000000E-01
          spgroup         113
           symrel      1  0  0   0  1  0   0  0  1       1  0  0   0 -1  0   0  0 -1
                      -1  0  0   0  1  0   0  0 -1      -1  0  0   0 -1  0   0  0  1
                       0  0  1   0  1  0   1  0  0       0  0  1   0 -1  0  -1  0  0
                       0  0 -1   0  1  0  -1  0  0       0  0 -1   0 -1  0   1  0  0
            tnons      0.0000000  0.0000000  0.0000000     0.5000000 -0.4999911  0.5000000
                       0.0000000  0.0000000  0.0000000     0.5000000 -0.4999911  0.5000000
                       0.0000000  0.0000000  0.0000000     0.5000000 -0.4999911  0.5000000
                       0.0000000  0.0000000  0.0000000     0.5000000 -0.4999911  0.5000000
           toldfe      1.00000000E-04 Hartree
            typat      1  1  2  2  2  2
              wtk        0.12500    0.12500    0.25000    0.12500    0.12500    0.06250
                         0.06250    0.12500
           xangst      0.0000000000E+00  0.0000000000E+00  0.0000000000E+00
                       2.2968407562E+00  1.4793678043E+00  2.2968407562E+00
                       3.1696656440E+00  0.0000000000E+00  1.4240158683E+00
                       1.4240158683E+00  0.0000000000E+00  3.1696656440E+00
                       8.7282488785E-01  1.4793678043E+00  8.7282488785E-01
                       3.7208566245E+00  1.4793678043E+00  3.7208566245E+00
            xcart      0.0000000000E+00  0.0000000000E+00  0.0000000000E+00
                       4.3404000000E+00  2.7956000000E+00  4.3404000000E+00
                       5.9898000000E+00  0.0000000000E+00  2.6910000000E+00
                       2.6910000000E+00  0.0000000000E+00  5.9898000000E+00
                       1.6494000000E+00  2.7956000000E+00  1.6494000000E+00
                       7.0314000000E+00  2.7956000000E+00  7.0314000000E+00
             xred      0.0000000000E+00  0.0000000000E+00  0.0000000000E+00
                       5.0000000000E-01  5.0000894278E-01  5.0000000000E-01
                       6.9000552944E-01  0.0000000000E+00  3.0999447056E-01
                       3.0999447056E-01  0.0000000000E+00  6.9000552944E-01
                       1.9000552944E-01  5.0000894278E-01  1.9000552944E-01
                       8.0999447056E-01  5.0000894278E-01  8.0999447056E-01
            znucl       22.00000    8.00000

 chkinp: Checking input parameters for consistency.

 chkinp: WARNING -
   Chksymbreak=1 . Found potentially symmetry-breaking value of tnons,
   which is neither a rational fraction in 1/8th nor in 1/12th :
   for the symmetry number    2
   symrel is   1  0  0  0 -1  0  0  0 -1
   tnons is     5.000000E-01   -4.999911E-01    5.000000E-01
   Please, read the description of the input variable chksymbreak,
   then, if you feel confident, you might switch it to zero, or consult with the forum.

[...]

 chkinp: WARNING -
   Chksymbreak=1 . Found potentially symmetry-breaking value of tnons,
   which is neither a rational fraction in 1/8th nor in 1/12th :
   for the symmetry number    8
   symrel is   0  0 -1  0 -1  0  1  0  0
   tnons is     5.000000E-01   -4.999911E-01    5.000000E-01
   Please, read the description of the input variable chksymbreak,
   then, if you feel confident, you might switch it to zero, or consult with the forum.

== DATASET  1 ==================================================================
-   nproc =    1

 Real(R)+Recip(G) space primitive vectors, cartesian coordinates (Bohr,Bohr^-1):
 R(1)=  8.6808000  0.0000000  0.0000000  G(1)=  0.1151968  0.0000000  0.0000000
 R(2)=  0.0000000  5.5911000  0.0000000  G(2)=  0.0000000  0.1788557  0.0000000
 R(3)=  0.0000000  0.0000000  8.6808000  G(3)=  0.0000000  0.0000000  0.1151968
 Unit cell volume ucvol=  4.2132455E+02 bohr^3
 Angles (23,13,12)=  9.00000000E+01  9.00000000E+01  9.00000000E+01 degrees

 getcut: wavevector=  0.0000  0.0000  0.0000  ngfft=  45  30  45
         ecut(hartree)=     28.800   => boxcut(ratio)=   2.09813

--- Pseudopotential description ------------------------------------------------
- pspini: atom type   1  psp file is ../../../Psps_for_tests/22ti.pspnc
- pspatm: opening atomic psp file    ../../../Psps_for_tests/22ti.pspnc
-  Troullier-Martins psp for element  Ti        Thu Oct 27 17:33:40 EDT 1994
- 22.00000   4.00000    940714                znucl, zion, pspdat
    1    1    2    0      2001   0.00000      pspcod,pspxc,lmax,lloc,mmax,r2well
    0   5.166   8.509    0   2.4203472        l,e99.0,e99.9,nproj,rcpsp
   0.00000000   0.00000000   0.00000000   0.00000000     rms, ekb1, ekb2, epsatm
    1   2.285   3.944    1   2.9934301        l,e99.0,e99.9,nproj,rcpsp
   0.00000000   0.00000000   0.00000000   0.00000000     rms, ekb1, ekb2, epsatm
    2  20.947  27.069    1   1.9326638        l,e99.0,e99.9,nproj,rcpsp
   0.00000000   0.00000000   0.00000000   0.00000000     rms, ekb1, ekb2, epsatm
    2.82741504495369    0.09256629068341    1.82586447305099   rchrg,fchrg,qchrg
  pspatm : epsatm=   66.67453488
         --- l  ekb(1:nproj) -->
             1    0.915537
             2   -8.015692
 pspatm: atomic psp has been read  and splines computed

- pspini: atom type   2  psp file is ../../../Psps_for_tests/8o.pspnc
- pspatm: opening atomic psp file    ../../../Psps_for_tests/8o.pspnc
-  Troullier-Martins psp for element  O         Thu Oct 27 17:29:57 EDT 1994
-  8.00000   6.00000    940714                znucl, zion, pspdat
    1    1    1    1      2001   0.00000      pspcod,pspxc,lmax,lloc,mmax,r2well
    0   5.480  16.893    1   1.4482335        l,e99.0,e99.9,nproj,rcpsp
   0.00000000   0.00000000   0.00000000   0.00000000     rms, ekb1, ekb2, epsatm
    1  20.911  28.075    0   1.4482335        l,e99.0,e99.9,nproj,rcpsp
   0.00000000   0.00000000   0.00000000   0.00000000     rms, ekb1, ekb2, epsatm
    0.56990156784787    3.95561236318184    0.63894027514378   rchrg,fchrg,qchrg
  pspatm : epsatm=    1.57752239
         --- l  ekb(1:nproj) -->
             0    5.670783
 pspatm: atomic psp has been read  and splines computed

   4.46909310E+03                                ecore*ucvol(ha*bohr**3)

_setup2: Arith. and geom. avg. npw (full set) are    3106.500    3106.483

=== [ionmov= 2] Broyden-Fletcher-Goldfard-Shanno method (forces)

--- Iteration: ( 1/20) Internal Cycle: (1/1)

---SELF-CONSISTENT-FIELD CONVERGENCE--------------------------------------------

     iter   Etot(hartree)      deltaE(h)  residm     vres2
 ETOT  1  -74.156648803175    -7.416E+01 1.501E-01 4.288E+02
 ETOT  2  -74.368884304837    -2.122E-01 9.440E-03 3.599E+02
 ETOT  3  -74.499979152348    -1.311E-01 3.668E-03 5.733E+01
 ETOT  4  -74.534310294273    -3.433E-02 1.871E-03 1.930E+00
 ETOT  5  -74.535481355493    -1.171E-03 1.331E-03 8.187E-01
 ETOT  6  -74.535659628424    -1.783E-04 8.371E-04 3.363E-01
 ETOT  7  -74.535816358725    -1.567E-04 9.103E-04 5.026E-02
 ETOT  8  -74.535846600342    -3.024E-05 6.476E-04 3.061E-03
 ETOT  9  -74.535849483681    -2.883E-06 6.690E-04 3.101E-04

 At SCF step    9, etot is converged :
  for the second time, diff in etot=  2.883E-06 < toldfe=  1.000E-04

 Cartesian components of stress tensor (hartree/bohr^3)
  sigma(1 1)= -1.58375824E-03  sigma(3 2)=  0.00000000E+00
  sigma(2 2)= -2.31644168E-03  sigma(3 1)=  0.00000000E+00
  sigma(3 3)= -1.58375824E-03  sigma(2 1)=  0.00000000E+00

 Integrated electronic density in atomic spheres:
 Atom  Sphere_radius  Integrated_density
    1        2.00000          1.61525796
    2        2.00000          1.61627360
    3        2.00000          6.23762392
    4        2.00000          6.23762392
    5        2.00000          6.23866250
    6        2.00000          6.23866250

---OUTPUT-----------------------------------------------------------------------

 Cartesian coordinates (xcart) [bohr]
  0.00000000000000E+00  0.00000000000000E+00  0.00000000000000E+00
[...]

--- Iteration: (10/20) Internal Cycle: (1/1)

[...]

 Difference of energy with previous step (new-old):
           Absolute (Ha)= 7.46755E-07
           Relative     = 1.00078E-08

--- Iteration: (20/20) Internal Cycle: (1/1)

---SELF-CONSISTENT-FIELD CONVERGENCE--------------------------------------------

     iter   Etot(hartree)      deltaE(h)  residm     vres2
 ETOT  1  -74.617233251353    -7.462E+01 7.370E-06 1.913E-02
 ETOT  2  -74.617187337803     4.591E-05 1.534E-05 1.041E-01
 ETOT  3  -74.617241098416    -5.376E-05 1.409E-05 2.252E-04

 At SCF step    3, etot is converged :
  for the second time, diff in etot=  5.376E-05 < toldfe=  1.000E-04

[...]

 Integrated electronic density in atomic spheres:
 Atom  Sphere_radius  Integrated_density
    1        2.00000          1.39571190
    2        2.00000          1.39500865
    3        2.00000          6.06434582
    4        2.00000          6.06434582
    5        2.00000          6.06248292
    6        2.00000          6.06248292

---OUTPUT-----------------------------------------------------------------------

 Cartesian coordinates (xcart) [bohr]
  1.05879432005540E-19  2.11725034720582E-04  1.11246114440153E-19
  4.67046997469998E+00  3.00798241865510E+00  4.67046997469998E+00
  6.50919273871250E+00  9.72394298975747E-06  2.83174721068745E+00
  2.83174721068745E+00  9.72394298975752E-06  6.50919273871250E+00
  1.83872276401253E+00  3.00818441974682E+00  1.83872276401253E+00
  7.50221718538745E+00  3.00818441974682E+00  7.50221718538744E+00
 Reduced coordinates (xred)
  1.13349869048608E-20  3.51920141170497E-05  1.19095203526385E-20
  5.00000000000000E-01  4.99973750769951E-01  5.00000000000000E-01
  6.96845582347485E-01  1.61627149770242E-06  3.03154417652514E-01
  3.03154417652514E-01  1.61627149770243E-06  6.96845582347485E-01
  1.96845582347486E-01  5.00007326512569E-01  1.96845582347485E-01
  8.03154417652515E-01  5.00007326512569E-01  8.03154417652515E-01
 Cartesian forces (fcart) [Ha/bohr]; max,rms= 2.33555E-05 1.67502E-05 (free atoms)
 -1.12937726317464E-21 -2.33555121029152E-05 -1.68903966730176E-31
 -1.12937726317464E-21  2.33555121029152E-05 -1.26677975047632E-31
  2.20219773882414E-05 -4.45873706171184E-06 -2.20219773882414E-05
 -2.20219773882414E-05 -4.45873706171184E-06  2.20219773882414E-05
  2.20219773882414E-05  4.45873706171184E-06  2.20219773882414E-05
 -2.20219773882414E-05  4.45873706171184E-06 -2.20219773882414E-05
 Reduced forces (fred)
  1.05494451955320E-20  1.40513316301239E-04  1.57772181044202E-30
  1.05494451955320E-20 -1.40513316301239E-04  1.18329135783152E-30
 -2.05705968350606E-04  2.68250136539791E-05  2.05705968350606E-04
  2.05705968350606E-04  2.68250136539792E-05 -2.05705968350606E-04
 -2.05705968350606E-04 -2.68250136539792E-05 -2.05705968350606E-04
  2.05705968350606E-04 -2.68250136539791E-05  2.05705968350606E-04
 Scale of Primitive Cell (acell) [bohr]
  9.34093994939996E+00  6.01628068278156E+00  9.34093994939996E+00
 Real space primitive translations (rprimd) [bohr]
  9.34093994939996E+00  0.00000000000000E+00  0.00000000000000E+00
  0.00000000000000E+00  6.01628068278156E+00  0.00000000000000E+00
  0.00000000000000E+00  0.00000000000000E+00  9.34093994939996E+00
 Unitary Cell Volume (ucvol) [Bohr^3]=  5.24939495835396E+02
 Angles (23,13,12)= [degrees]
  9.00000000000000E+01  9.00000000000000E+01  9.00000000000000E+01
 Lengths [Bohr]
  9.34093994939996E+00  6.01628068278156E+00  9.34093994939996E+00
 Stress tensor in cartesian coordinates (strten) [Ha/bohr^3]
  2.45406038728812E-04  0.00000000000000E+00  0.00000000000000E+00
  0.00000000000000E+00 -4.85077074776772E-04  0.00000000000000E+00
  0.00000000000000E+00  0.00000000000000E+00  2.45406038728815E-04
 Total energy (etotal) [Ha]= -7.46172410984162E+01

 Difference of energy with previous step (new-old):
           Absolute (Ha)=-9.49620E-07
           Relative     =-1.27265E-08

 fconv : WARNING -
  ntime=   20 was not enough Broyd/MD steps to converge gradients:
  max grad (force/stress) = 1.9117E-04 > tolmxf= 5.0000E-05 ha/bohr (free atoms)

 ----iterations are completed or convergence reached----

 Mean square residual over all n,k,spin=   2.0370E-07; max=  1.4088E-05
 reduced coordinates (array xred) for    6 atoms
       0.000000000000      0.000035192014      0.000000000000
       0.500000000000      0.499973750770      0.500000000000
       0.696845582347      0.000001616271      0.303154417653
       0.303154417653      0.000001616271      0.696845582347
       0.196845582347      0.500007326513      0.196845582347
       0.803154417653      0.500007326513      0.803154417653
 rms dE/dt=  1.4547E-04; max dE/dt=  2.0571E-04; dE/dt below (all hartree)
    1       0.000000000000      0.000140513316      0.000000000000
    2       0.000000000000     -0.000140513316      0.000000000000
    3      -0.000205705968      0.000026825014      0.000205705968
    4       0.000205705968      0.000026825014     -0.000205705968
    5      -0.000205705968     -0.000026825014     -0.000205705968
    6       0.000205705968     -0.000026825014      0.000205705968

 cartesian coordinates (angstrom) at end:
    1      0.00000000000000     0.00011204006286     0.00000000000000
    2      2.47150626401514     1.59175573979170     2.47150626401514
    3      3.44451644364618     0.00000514568901     1.49849608438410
    4      1.49849608438410     0.00000514568901     3.44451644364618
    5      0.97301017963104     1.59186263416555     0.97301017963104
    6      3.97000234839925     1.59186263416555     3.97000234839925

 cartesian forces (hartree/bohr) at end:
    1     -0.00000000000000    -0.00002335551210    -0.00000000000000
    2     -0.00000000000000     0.00002335551210    -0.00000000000000
    3      0.00002202197739    -0.00000445873706    -0.00002202197739
    4     -0.00002202197739    -0.00000445873706     0.00002202197739
    5      0.00002202197739     0.00000445873706     0.00002202197739
    6     -0.00002202197739     0.00000445873706    -0.00002202197739
 frms,max,avg= 1.6750159E-05 2.3355512E-05   0.000E+00  0.000E+00  0.000E+00 h/b

 cartesian forces (eV/Angstrom) at end:
    1     -0.00000000000000    -0.00120098861924    -0.00000000000000
    2     -0.00000000000000     0.00120098861924    -0.00000000000000
    3      0.00113241551288    -0.00022927745894    -0.00113241551288
    4     -0.00113241551288    -0.00022927745894     0.00113241551288
    5      0.00113241551288     0.00022927745894     0.00113241551288
    6     -0.00113241551288     0.00022927745894    -0.00113241551288
 frms,max,avg= 8.6132776E-04 1.2009886E-03   0.000E+00  0.000E+00  0.000E+00 e/A
 length scales=  9.340939949400  6.016280682782  9.340939949400 bohr
              =  4.943012528030  3.183678617808  4.943012528030 angstroms
 prteigrs : about to open file RutileGeom2_o_EIG
 Fermi (or HOMO) energy (hartree) =  -0.11283   Average Vxc (hartree)=  -0.37068
 Eigenvalues (hartree) for nkpt=   8  k points:
 kpt#   1, nband= 17, wtk=  0.12500, kpt= -0.2500  0.5000  0.0000 (reduced coord)
  -0.72384   -0.72384   -0.71776   -0.71776   -0.24925   -0.24921   -0.23825   -0.23823
  -0.21233   -0.21231   -0.19691   -0.19690   -0.16055   -0.16054   -0.14970   -0.14969
  -0.03154
 prteigrs : prtvol=0 or 1, do not print more k-points.

 Components of total free energy (in Hartree) :

    Kinetic energy  =  5.26157157724416E+01
    Hartree energy  =  1.96764274458262E+01
    XC energy       = -2.08222070679462E+01
    Ewald energy    = -5.39687825352200E+01
    PspCore energy  =  8.51353943482571E+00
    Loc. psp. energy= -7.84797322376538E+01
    NL   psp  energy= -2.15220191068970E+00
    >>>>>>>>> Etotal= -7.46172410984162E+01

 Other information on the energy :
    Total energy(eV)= -2.03043839010317E+03 ; Band energy (Ha)=  -1.0495716719E+01
 rms coord change=  4.5601E-03   atom, delta coord (reduced):
     1        0.000000000000      0.000035192014      0.000000000000
     2        0.000000000000     -0.000035192014      0.000000000000
     3        0.006840052903      0.000001616271     -0.006840052903
     4       -0.006840052903      0.000001616271      0.006840052903
     5        0.006840052903     -0.000001616271      0.006840052903
     6       -0.006840052903     -0.000001616271     -0.006840052903

 Cartesian components of stress tensor (hartree/bohr^3)
  sigma(1 1)=  2.45406039E-04  sigma(3 2)=  0.00000000E+00
  sigma(2 2)= -4.85077075E-04  sigma(3 1)=  0.00000000E+00
  sigma(3 3)=  2.45406039E-04  sigma(2 1)=  0.00000000E+00

-Cartesian components of stress tensor (GPa)         [Pressure= -5.6243E-02 GPa]
- sigma(1 1)=  7.22009372E+00  sigma(3 2)=  0.00000000E+00
- sigma(2 2)= -1.42714579E+01  sigma(3 1)=  0.00000000E+00
- sigma(3 3)=  7.22009372E+00  sigma(2 1)=  0.00000000E+00

== END DATASET(S) ==============================================================

 -outvars: echo values of variables after computation  --------
            acell      9.3409399494E+00  6.0162806828E+00  9.3409399494E+00 Bohr
              amu      4.78800000E+01  1.59994000E+01
           diemac      1.20000000E+01
          dilatmx      1.20000000E+00
             ecut      2.00000000E+01 Hartree
           ecutsm      5.00000000E-01 Hartree
           etotal     -7.4617241098E+01
            fcart     -1.1293772632E-21 -2.3355512103E-05 -1.6890396673E-31
                      -1.1293772632E-21  2.3355512103E-05 -1.2667797505E-31
                       2.2021977388E-05 -4.4587370617E-06 -2.2021977388E-05
                      -2.2021977388E-05 -4.4587370617E-06  2.2021977388E-05
                       2.2021977388E-05  4.4587370617E-06  2.2021977388E-05
                      -2.2021977388E-05  4.4587370617E-06 -2.2021977388E-05
-          fftalg         112
           getwfk          -1
           ionmov           2
              ixc          11
              kpt     -2.50000000E-01  5.00000000E-01  0.00000000E+00
                       5.00000000E-01 -2.50000000E-01  0.00000000E+00
                      -2.50000000E-01 -2.50000000E-01  2.50000000E-01
                      -2.50000000E-01  0.00000000E+00  0.00000000E+00
                       5.00000000E-01  5.00000000E-01  2.50000000E-01
                       0.00000000E+00 -2.50000000E-01  0.00000000E+00
                       5.00000000E-01 -2.50000000E-01  5.00000000E-01
                       5.00000000E-01  0.00000000E+00  2.50000000E-01
         kptrlatt        2   -2    2      0    4    0     -2   -2    2
          kptrlen      2.23644000E+01
P           mkmem           8
            natom           6
            nband          17
            ngfft          45      30      45
             nkpt           8
            nstep          20
             nsym           8
            ntime          20
           ntypat           2
              occ      2.000000  2.000000  2.000000  2.000000  2.000000  2.000000
                       2.000000  2.000000  2.000000  2.000000  2.000000  2.000000
                       2.000000  2.000000  2.000000  2.000000  0.000000
          optcell           1
           shiftk      5.00000000E-01  0.00000000E+00  5.00000000E-01
          spgroup         113
           strten      2.4540603873E-04 -4.8507707478E-04  2.4540603873E-04
                       0.0000000000E+00  0.0000000000E+00  0.0000000000E+00
           symrel      1  0  0   0  1  0   0  0  1       1  0  0   0 -1  0   0  0 -1
                      -1  0  0   0  1  0   0  0 -1      -1  0  0   0 -1  0   0  0  1
                       0  0  1   0  1  0   1  0  0       0  0  1   0 -1  0  -1  0  0
                       0  0 -1   0  1  0  -1  0  0       0  0 -1   0 -1  0   1  0  0
            tnons      0.0000000  0.0000000  0.0000000     0.5000000 -0.4999911  0.5000000
                       0.0000000  0.0000000  0.0000000     0.5000000 -0.4999911  0.5000000
                       0.0000000  0.0000000  0.0000000     0.5000000 -0.4999911  0.5000000
                       0.0000000  0.0000000  0.0000000     0.5000000 -0.4999911  0.5000000
           toldfe      1.00000000E-04 Hartree
            typat      1  1  2  2  2  2
              wtk        0.12500    0.12500    0.25000    0.12500    0.12500    0.06250
                         0.06250    0.12500
           xangst      5.6028982276E-20  1.1204006286E-04  5.8868908306E-20
                       2.4715062640E+00  1.5917557398E+00  2.4715062640E+00
                       3.4445164436E+00  5.1456890078E-06  1.4984960844E+00
                       1.4984960844E+00  5.1456890078E-06  3.4445164436E+00
                       9.7301017963E-01  1.5918626342E+00  9.7301017963E-01
                       3.9700023484E+00  1.5918626342E+00  3.9700023484E+00
            xcart      1.0587943201E-19  2.1172503472E-04  1.1124611444E-19
                       4.6704699747E+00  3.0079824187E+00  4.6704699747E+00
                       6.5091927387E+00  9.7239429898E-06  2.8317472107E+00
                       2.8317472107E+00  9.7239429898E-06  6.5091927387E+00
                       1.8387227640E+00  3.0081844197E+00  1.8387227640E+00
                       7.5022171854E+00  3.0081844197E+00  7.5022171854E+00
             xred      1.1334986905E-20  3.5192014117E-05  1.1909520353E-20
                       5.0000000000E-01  4.9997375077E-01  5.0000000000E-01
                       6.9684558235E-01  1.6162714977E-06  3.0315441765E-01
                       3.0315441765E-01  1.6162714977E-06  6.9684558235E-01
                       1.9684558235E-01  5.0000732651E-01  1.9684558235E-01
                       8.0315441765E-01  5.0000732651E-01  8.0315441765E-01
            znucl       22.00000    8.00000

-
-  as well as % of the time and number of calls for node 0-
-<BEGIN_TIMER mpi_nprocs = 1, omp_nthreads = 1, mpi_rank = 0>
- cpu_time =          217.0, wall_time =          218.0
-
-                                                                  (-1=no count)
- fourwf%(pot)                 118.422  54.6    118.453  54.3         111780      -1.00        1.00       1.00
- projbd                        28.094  12.9     27.721  12.7         178680      -1.00        1.01       1.01
- nonlop(apply)                 27.281  12.6     27.195  12.5         111780      -1.00        1.00       1.00
- fourwf%(den)                   9.703   4.5      9.687   4.4          16000      -1.00        1.00       1.00
- vtowfk(ssdiag)                 5.891   2.7      6.040   2.8             -1      -1.00        0.98       0.98
- getghc-other                   2.375   1.1      2.549   1.2             -1      -1.00        0.93       0.93
- xc:pot/=fourdp                 2.234   1.0      2.247   1.0            145      -1.00        0.99       0.99
- fourdp                         1.422   0.7      1.387   0.6           1805      -1.00        1.03       1.03
- nonlop(forstr)                 1.359   0.6      1.464   0.7           2560      -1.00        0.93       0.93
- others (104)                   3.203   1.5      3.424   1.6             -1      -1.00        0.94       0.94
-<END_TIMER>
-
- subtotal                     199.984  92.1    200.167  91.8                                  1.00       1.00

- as well as % of the total time and number of calls

-<BEGIN_TIMER mpi_nprocs = 1, omp_nthreads = 1, mpi_rank = world>
- cpu_time =         217.0, wall_time =         218.0
-
-                                                                  (-1=no count)
- fourwf%(pot)                 118.422  54.6    118.453  54.3         111780      -1.00        1.00       1.00
- projbd                        28.094  12.9     27.721  12.7         178680      -1.00        1.01       1.01
- nonlop(apply)                 27.281  12.6     27.195  12.5         111780      -1.00        1.00       1.00
- fourwf%(den)                   9.703   4.5      9.687   4.4          16000      -1.00        1.00       1.00
- vtowfk(ssdiag)                 5.891   2.7      6.040   2.8             -1      -1.00        0.98       0.98
- getghc-other                   2.375   1.1      2.549   1.2             -1      -1.00        0.93       0.93
- xc:pot/=fourdp                 2.234   1.0      2.247   1.0            145      -1.00        0.99       0.99
- fourdp                         1.422   0.7      1.387   0.6           1805      -1.00        1.03       1.03
- nonlop(forstr)                 1.359   0.6      1.464   0.7           2560      -1.00        0.93       0.93
- others (104)                   3.203   1.5      3.424   1.6             -1      -1.00        0.94       0.94
-<END_TIMER>

- subtotal                     199.984  92.1    200.167  91.8                                  1.00       1.00

 Suggested references for the acknowledgment of ABINIT usage.

 Calculation completed.
.Delivered   7 WARNINGs and  22 COMMENTs to log file.