.Version 8.6.3 of ABINIT
.(sequential version, prepared for a x86_64_linux_gnu5.4 computer)

 ABINIT is a project of the Universite Catholique de Louvain,
 Corning Inc. and other collaborators, see ~abinit/doc/developers/contributors.txt .
 Please read ~abinit/doc/users/acknowledgments.html for suggested
 acknowledgments of the ABINIT effort.

.Starting date : Fri 27 Apr 2018.
- ( at 21h53 )

 === Build Information ===
  Version       : 8.6.3
  Build target  : x86_64_linux_gnu5.4
  Build date    : 20180412

 === Optimizations ===
  Debug level        : basic
  Optimization level : standard
  Architecture       : unknown_unknown

 === Multicore ===
  Parallel build : no
  Parallel I/O   : no
  openMP support : no
  GPU support    : no

 === Connectors / Fallbacks ===
  Connectors on : yes
  Fallbacks on  : yes
  DFT flavor    : none
  FFT flavor    : none
  LINALG flavor : netlib-fallback
  MATH flavor   : none
  TIMER flavor  : abinit
  TRIO flavor   : none

 === Experimental features ===
  Bindings            : @enable_bindings@
  Exports             : no
  GW double-precision : no

 Default optimizations:
   -O2 -mtune=native -march=native

 Optimizations for 20_datashare:
   -O0

 CPP options activated during the build:

                    CC_GNU                   CXX_GNU                    FC_GNU

 HAVE_FC_ALLOCATABLE_DT...             HAVE_FC_ASYNC         HAVE_FC_BACKTRACE

  HAVE_FC_COMMAND_ARGUMENT      HAVE_FC_COMMAND_LINE        HAVE_FC_CONTIGUOUS

           HAVE_FC_CPUTIME              HAVE_FC_EXIT             HAVE_FC_FLUSH

             HAVE_FC_GAMMA            HAVE_FC_GETENV   HAVE_FC_IEEE_EXCEPTIONS

          HAVE_FC_INT_QUAD             HAVE_FC_IOMSG     HAVE_FC_ISO_C_BINDING

  HAVE_FC_ISO_FORTRAN_2008        HAVE_FC_LONG_LINES        HAVE_FC_MOVE_ALLOC

           HAVE_FC_PRIVATE         HAVE_FC_PROTECTED         HAVE_FC_STREAM_IO

            HAVE_FC_SYSTEM          HAVE_FORTRAN2003        HAVE_LIBPAW_ABINIT

      HAVE_LIBTETRA_ABINIT             HAVE_OS_LINUX         HAVE_TIMER_ABINIT

              USE_MACROAVE

- input  file    -> PdDOS.in
- output file    -> PdDOS.out
- root for input  files -> PdDOS_i
- root for output files -> PdDOS_o

-instrng: 76 lines of input have been read from file PdDOS.in

 Please give name of formatted atomic psp file
 iofn2 : for atom type 1, psp file is ../../../Psps_for_tests/Pd.psp8
  read the values zionpsp= 18.0 , pspcod=   8 , lmax=   2

 inpspheads: deduce mpsang = 3, n1xccc = 2501.
 invars1 : treat image number: 1

 symlatt : the Bravais lattice is cF (face-centered cubic)
  xred   is defined in input file
 ingeo : takes atomic coordinates from input array xred
 symfind : exit, nsym=48
   symrel matrices, symafm and tnons are :
   1       1   0   0     0   1   0     0   0   1       1      0.0000  0.0000  0.0000
   2      -1   0   0     0  -1   0     0   0  -1       1      0.0000  0.0000  0.0000
   3       0  -1   1     0  -1   0     1  -1   0       1      0.0000  0.0000  0.0000
   4       0   1  -1     0   1   0    -1   1   0       1      0.0000  0.0000  0.0000
   5      -1   0   0    -1   0   1    -1   1   0       1      0.0000  0.0000  0.0000
   6       1   0   0     1   0  -1     1  -1   0       1      0.0000  0.0000  0.0000
   7       0   1  -1     1   0  -1     0   0  -1       1      0.0000  0.0000  0.0000
   8       0  -1   1    -1   0   1     0   0   1       1      0.0000  0.0000  0.0000
   9      -1   0   0    -1   1   0    -1   0   1       1      0.0000  0.0000  0.0000
  10       1   0   0     1  -1   0     1   0  -1       1      0.0000  0.0000  0.0000
  11       0  -1   1     1  -1   0     0  -1   0       1      0.0000  0.0000  0.0000
  12       0   1  -1    -1   1   0     0   1   0       1      0.0000  0.0000  0.0000
  13       1   0   0     0   0   1     0   1   0       1      0.0000  0.0000  0.0000
  14      -1   0   0     0   0  -1     0  -1   0       1      0.0000  0.0000  0.0000
  15       0   1  -1     0   0  -1     1   0  -1       1      0.0000  0.0000  0.0000
  16       0  -1   1     0   0   1    -1   0   1       1      0.0000  0.0000  0.0000
  17      -1   0   1    -1   1   0    -1   0   0       1      0.0000  0.0000  0.0000
  18       1   0  -1     1  -1   0     1   0   0       1      0.0000  0.0000  0.0000
  19       0  -1   0     1  -1   0     0  -1   1       1      0.0000  0.0000  0.0000
  20       0   1   0    -1   1   0     0   1  -1       1      0.0000  0.0000  0.0000
  21       1   0  -1     0   0  -1     0   1  -1       1      0.0000  0.0000  0.0000
  22      -1   0   1     0   0   1     0  -1   1       1      0.0000  0.0000  0.0000
  23       0   1   0     0   0   1     1   0   0       1      0.0000  0.0000  0.0000
  24       0  -1   0     0   0  -1    -1   0   0       1      0.0000  0.0000  0.0000
  25       1   0  -1     0   1  -1     0   0  -1       1      0.0000  0.0000  0.0000
  26      -1   0   1     0  -1   1     0   0   1       1      0.0000  0.0000  0.0000
  27       0  -1   0     0  -1   1     1  -1   0       1      0.0000  0.0000  0.0000
  28       0   1   0     0   1  -1    -1   1   0       1      0.0000  0.0000  0.0000
  29      -1   0   1    -1   0   0    -1   1   0       1      0.0000  0.0000  0.0000
  30       1   0  -1     1   0   0     1  -1   0       1      0.0000  0.0000  0.0000
  31       0   1   0     1   0   0     0   0   1       1      0.0000  0.0000  0.0000
  32       0  -1   0    -1   0   0     0   0  -1       1      0.0000  0.0000  0.0000
  33       0   0  -1     0   1  -1     1   0  -1       1      0.0000  0.0000  0.0000
  34       0   0   1     0  -1   1    -1   0   1       1      0.0000  0.0000  0.0000
  35       1  -1   0     0  -1   1     0  -1   0       1      0.0000  0.0000  0.0000
  36      -1   1   0     0   1  -1     0   1   0       1      0.0000  0.0000  0.0000
  37       0   0   1     1   0   0     0   1   0       1      0.0000  0.0000  0.0000
  38       0   0  -1    -1   0   0     0  -1   0       1      0.0000  0.0000  0.0000
  39      -1   1   0    -1   0   0    -1   0   1       1      0.0000  0.0000  0.0000
  40       1  -1   0     1   0   0     1   0  -1       1      0.0000  0.0000  0.0000
  41       0   0   1     0   1   0     1   0   0       1      0.0000  0.0000  0.0000
  42       0   0  -1     0  -1   0    -1   0   0       1      0.0000  0.0000  0.0000
  43       1  -1   0     0  -1   0     0  -1   1       1      0.0000  0.0000  0.0000
  44      -1   1   0     0   1   0     0   1  -1       1      0.0000  0.0000  0.0000
  45       0   0  -1     1   0  -1     0   1  -1       1      0.0000  0.0000  0.0000
  46       0   0   1    -1   0   1     0  -1   1       1      0.0000  0.0000  0.0000
  47      -1   1   0    -1   0   1    -1   0   0       1      0.0000  0.0000  0.0000
  48       1  -1   0     1   0  -1     1   0   0       1      0.0000  0.0000  0.0000

 symlatt : the Bravais lattice is cF (face-centered cubic)

 symlatt : the Bravais lattice is cF (face-centered cubic)
 symspgr : spgroup= 225  Fm -3 m   (=Oh^5)
 symspgr : optical characteristics = isotropic
 ingeo : angdeg(1:3)=   60.00000000   60.00000000   60.00000000
 invars2: take the default value of fband=  1.25000000E-01
 chkneu : initialized the occupation numbers for occopt=    1, spin-unpolarized or antiferromagnetic case :
  2.00  2.00  2.00  2.00  2.00  2.00  2.00  2.00  2.00  0.00
mpi_setup: mkmem  undefined in the input file.Use default mkmem  = nkpt
 mpi_setup: With nkpt_me=2 and mkmem  = 2, ground state wf handled in core.
mpi_setup: mkqmem undefined in the input file.Use default mkqmem = nkpt
 mpi_setup: With nkpt_me=2 and mkqmem = 2, ground state wf handled in core.
mpi_setup: mk1mem undefined in the input file.Use default mk1mem = nkpt
 mpi_setup: With nkpt_me=2 and mk1mem = 2, ground state wf handled in core.
 For input ecut=  6.000000E+01 best grid ngfft=      40      40      40
       max ecut=  7.303003E+01

 ==== FFT mesh ====
  FFT mesh divisions ........................    40   40   40
  Augmented FFT divisions ...................    41   41   40
  FFT algorithm .............................   112
  FFT cache size ............................    16
 getmpw: optimal value of mpw= 2210

 Symmetries : space group Fm -3 m (#225); Bravais cF (face-center cubic)

 getdim_nloc : deduce lmnmax  =  18, lnmax  =   6,
                      lmnmaxso=  18, lnmaxso=   6.
     intxc =       0    ionmov =       0      iscf =       7    lmnmax =       6
     lnmax =       6     mgfft =      40  mpssoang =       3    mqgrid =    3001
     natom =       1  nloc_mem =       1    nspden =       1   nspinor =       1
    nsppol =       1      nsym =      48    n1xccc =    2501    ntypat =       1
    occopt =       1   xclevel =       2
-    mband =          10        mffmem =           1         mkmem =           2
       mpw =        2210          nfft =       64000          nkpt =           2
  Rough estimation (10% accuracy) of disk space for files :

 The job will continue.
------------- Echo of variables that govern the present computation ------------
-
- outvars: echo of selected default values
-   iomode0 =  0 , fftalg0 =112 , wfoptalg0 =  0
-
- outvars: echo of global parameters not present in the input file
-  max_nthreads =    0
-
 -outvars: echo values of preprocessed input variables --------
            acell      7.3524000000E+00  7.3524000000E+00  7.3524000000E+00 Bohr
              amu      1.06420000E+02
           diemac      1.20000000E+01
             ecut      6.00000000E+01 Hartree
-          fftalg         112
           getwfk          -1
              ixc          11
              kpt     -2.50000000E-01  5.00000000E-01  0.00000000E+00
                      -2.50000000E-01  0.00000000E+00  0.00000000E+00
         kptrlatt        2   -2    2     -2    2    2     -2   -2    2
          kptrlen      1.47048000E+01
P           mkmem           2
            natom           1
            nband          10
            ngfft          40      40      40
             nkpt           2
            nstep          40
             nsym          48
           ntypat           1
              occ      2.000000  2.000000  2.000000  2.000000  2.000000  2.000000
                       2.000000  2.000000  2.000000  0.000000
           prtdos           2
            rprim      0.0000000000E+00  5.0000000000E-01  5.0000000000E-01
                       5.0000000000E-01  0.0000000000E+00  5.0000000000E-01
                       5.0000000000E-01  5.0000000000E-01  0.0000000000E+00
           shiftk      5.00000000E-01  5.00000000E-01  5.00000000E-01
          spgroup         225
           symrel      1  0  0   0  1  0   0  0  1      -1  0  0   0 -1  0   0  0 -1
                       0 -1  1   0 -1  0   1 -1  0       0  1 -1   0  1  0  -1  1  0
                      -1  0  0  -1  0  1  -1  1  0       1  0  0   1  0 -1   1 -1  0
                       0  1 -1   1  0 -1   0  0 -1       0 -1  1  -1  0  1   0  0  1
                      -1  0  0  -1  1  0  -1  0  1       1  0  0   1 -1  0   1  0 -1
                       0 -1  1   1 -1  0   0 -1  0       0  1 -1  -1  1  0   0  1  0
                       1  0  0   0  0  1   0  1  0      -1  0  0   0  0 -1   0 -1  0
[...]
  pspatm : epsatm=   26.09224486
         --- l  ekb(1:nproj) -->
             0    7.845850   -2.282160
             1    3.261104   -0.686948
             2   -1.134855   -0.401224
 pspatm: atomic psp has been read  and splines computed

   4.69660407E+02                                ecore*ucvol(ha*bohr**3)
 ==== Info on pseudopotentials ====
  Norm-conserving pseudopotentials
  Number of pseudopotentials ..    1
  Number of types of atoms   ..    1
  Scalar calculation (no spin-orbit term)
  Nonlocal part applied using Legendre polynomials
  Max number of non-local projectors over l and type   2
  Highest angular momentum +1 .......   3
  Max number of (l,n)   components ..   6
  Max number of (l,m,n) components ..   6

 Pseudo-Core Charge Info:
   Number of radial points for pseudo-core charge .. 2501
   XC core-correction treatment (optnlxccc) ........    1
   Radius for pseudo-core charge for each type .....

  - Atom type    1 has pseudo-core radius ..  5.9900

 Info on the Q-grid used for form factors in spline form:
   Number of q-points for radial functions ffspl ..   3001
   Number of q-points for vlspl ...................   3001
   vloc is computed in Reciprocal Space
   model core charge treated in real-space

  XC functional for type 1 is 11
  Pseudo valence available: yes

 wfconv:    10 bands initialized randomly with npw=  2210, for ikpt=     1
 wfconv:    10 bands initialized randomly with npw=  2196, for ikpt=     2
_setup2: Arith. and geom. avg. npw (full set) are    2206.500    2206.492
 initro: for itypat=  1, take pseudo charge density from pp file

 getcut: wavevector=  0.0000  0.0000  0.0000  ngfft=  40  40  40
         ecut(hartree)=     60.000   => boxcut(ratio)=   2.20651

 getcut : COMMENT -
  Note that boxcut > 2.2 ; recall that boxcut=Gcut(box)/Gcut(sphere) = 2
  is sufficient for exact treatment of convolution.
  Such a large boxcut is a waste : you could raise ecut
  e.g. ecut=   73.030031 Hartrees makes boxcut=2

 ITER STEP NUMBER     1
 vtorho : nnsclo_now=2, note that nnsclo,dbl_nnsclo,istep=0 0 1
 non-scf iterations; kpt #     1  , k= ( -0.25000  0.50000  0.00000  ), band residuals:
 res:  3.30E+00  2.41E+00  1.65E+00  2.12E+00  1.06E+00  7.73E-01  4.95E-01  8.04E-01
 res:  7.60E-01  9.28E-01
 ene: -2.12E+00 -1.12E+00 -1.04E+00 -8.10E-01  4.29E-01  4.93E-01  6.17E-01  7.03E-01
 ene:  9.23E-01  1.17E+00
 res:  5.83E-02  1.42E-02  1.72E-02  6.12E-02  1.00E-02  1.54E-02  3.77E-02  2.83E-02
 res:  1.00E-01  1.70E-01
 ene: -2.52E+00 -1.28E+00 -1.27E+00 -1.26E+00  3.42E-01  3.75E-01  4.32E-01  4.75E-01
 ene:  5.72E-01  6.90E-01
 vtowfk : number of one-way 3D ffts skipped in vtowfk until now =1
     eigenvalues (hartree) for   10  bands
              after    3 non-SCF iterations with    4 CG line minimizations
 -2.5242E+00 -1.2820E+00 -1.2750E+00 -1.2633E+00  3.4188E-01  3.7503E-01
  4.3159E-01  4.7513E-01  5.7167E-01  6.8976E-01
 non-scf iterations; kpt #     2  , k= ( -0.25000  0.00000  0.00000  ), band residuals:
 res:  2.67E+00  2.07E+00  2.74E+00  2.09E+00  9.11E-01  6.69E-01  6.20E-01  7.11E-01
 res:  6.94E-01  7.82E-01
 ene: -2.13E+00 -1.09E+00 -9.57E-01 -8.44E-01  3.85E-01  5.18E-01  5.70E-01  6.36E-01
 ene:  6.90E-01  8.60E-01
 res:  5.44E-02  9.97E-03  2.97E-02  5.23E-02  7.01E-03  8.98E-03  1.11E-02  2.40E-02
 res:  2.84E-02  4.52E-02
 ene: -2.53E+00 -1.28E+00 -1.27E+00 -1.27E+00  2.83E-01  4.08E-01  4.32E-01  4.32E-01
 ene:  4.92E-01  4.93E-01
 vtowfk : number of one-way 3D ffts skipped in vtowfk until now =2
     eigenvalues (hartree) for   10  bands
              after    3 non-SCF iterations with    4 CG line minimizations
 -2.5280E+00 -1.2775E+00 -1.2701E+00 -1.2678E+00  2.8299E-01  4.0799E-01
  4.3181E-01  4.3236E-01  4.9178E-01  4.9285E-01
 Total charge density [el/Bohr^3]
      Maximum=    1.7781E+00  at reduced coord.    0.1250    0.8750    0.9500
      Minimum=    2.1813E-02  at reduced coord.    0.5000    0.5000    0.5000
   Integrated=    1.8000E+01
 ETOT  1  -135.31638621959    -1.353E+02 1.697E-01 4.088E+02
 scprqt: <Vxc>= -5.1668824E-01 hartree

Simple mixing update:
  residual square of the potential :   239.19131750995797
 scfcv: previous iteration took 00 [s]

 ITER STEP NUMBER     2
 vtorho : nnsclo_now=2, note that nnsclo,dbl_nnsclo,istep=0 0 2
 non-scf iterations; kpt #     1  , k= ( -0.25000  0.50000  0.00000  ), band residuals:
 res:  7.57E-04  1.97E-03  2.30E-04  7.69E-04  1.60E-03  1.61E-03  3.36E-03  1.34E-03
 res:  1.80E-03  1.06E-02
 ene: -2.72E+00 -1.46E+00 -1.45E+00 -1.45E+00  2.54E-01  2.80E-01  3.33E-01  3.48E-01
 ene:  4.02E-01  5.73E-01
 res:  1.45E-06  9.47E-07  1.25E-07  9.38E-08  1.59E-06  6.73E-06  3.52E-05  4.72E-06
 res:  9.84E-06  1.40E-04
 ene: -2.72E+00 -1.46E+00 -1.45E+00 -1.45E+00  2.54E-01  2.80E-01  3.32E-01  3.48E-01
 ene:  4.02E-01  5.72E-01
 vtowfk : number of one-way 3D ffts skipped in vtowfk until now =3
     eigenvalues (hartree) for   10  bands
              after    3 non-SCF iterations with    4 CG line minimizations
 -2.7240E+00 -1.4601E+00 -1.4544E+00 -1.4525E+00  2.5354E-01  2.7983E-01
  3.3244E-01  3.4822E-01  4.0220E-01  5.7169E-01
 non-scf iterations; kpt #     2  , k= ( -0.25000  0.00000  0.00000  ), band residuals:
 res:  1.34E-03  7.42E-04  9.86E-05  1.81E-04  2.05E-03  1.24E-03  3.91E-05  4.74E-05
 res:  4.89E-05  1.01E-04
 ene: -2.73E+00 -1.46E+00 -1.45E+00 -1.45E+00  2.46E-01  3.17E-01  3.17E-01  3.24E-01
 ene:  3.65E-01  3.65E-01
 res:  1.29E-06  1.73E-08  1.56E-08  2.07E-08  5.71E-08  3.18E-09  5.90E-08  6.09E-08
 res:  1.22E-07  5.67E-07
 ene: -2.73E+00 -1.46E+00 -1.45E+00 -1.45E+00  2.46E-01  3.17E-01  3.17E-01  3.24E-01
 ene:  3.65E-01  3.65E-01
 vtowfk : number of one-way 3D ffts skipped in vtowfk until now =4
     eigenvalues (hartree) for   10  bands
              after    3 non-SCF iterations with    4 CG line minimizations
 -2.7252E+00 -1.4557E+00 -1.4500E+00 -1.4500E+00  2.4567E-01  3.1687E-01
  3.1687E-01  3.2419E-01  3.6467E-01  3.6467E-01
 Total charge density [el/Bohr^3]
      Maximum=    1.9171E+00  at reduced coord.    0.1500    0.8750    0.9750
      Minimum=    1.5105E-02  at reduced coord.    0.5000    0.5000    0.5000
   Integrated=    1.8000E+01
 ETOT  2  -135.41184094683    -9.545E-02 1.401E-04 5.181E+02
 scprqt: <Vxc>= -4.9125996E-01 hartree

 Pulay update with  1 previous iterations:
 mixing of old trial potential : alpha(m:m-4)=  0.469      0.531
 scfcv: previous iteration took 00 [s]

 ITER STEP NUMBER     3
 vtorho : nnsclo_now=1, note that nnsclo,dbl_nnsclo,istep=0 0 3
 non-scf iterations; kpt #     1  , k= ( -0.25000  0.50000  0.00000  ), band residuals:
 res:  1.83E-04  4.93E-04  7.56E-05  2.19E-05  2.35E-04  2.07E-04  7.23E-04  3.47E-05
 res:  2.82E-05  1.37E-03
 ene: -2.60E+00 -1.35E+00 -1.35E+00 -1.34E+00  3.12E-01  3.40E-01  3.96E-01  4.23E-01
 ene:  4.86E-01  6.19E-01
 vtowfk : number of one-way 3D ffts skipped in vtowfk until now =5
     eigenvalues (hartree) for   10  bands
              after    2 non-SCF iterations with    4 CG line minimizations
 -2.6038E+00 -1.3522E+00 -1.3457E+00 -1.3435E+00  3.1208E-01  3.4036E-01
  3.9638E-01  4.2342E-01  4.8590E-01  6.1886E-01
 non-scf iterations; kpt #     2  , k= ( -0.25000  0.00000  0.00000  ), band residuals:
 res:  3.87E-04  2.05E-04  1.46E-05  1.46E-05  7.68E-04  4.79E-06  4.79E-06  7.84E-04
 res:  5.67E-06  5.66E-06
 ene: -2.61E+00 -1.35E+00 -1.34E+00 -1.34E+00  2.81E-01  3.77E-01  3.89E-01  3.89E-01
 ene:  4.43E-01  4.43E-01
 vtowfk : number of one-way 3D ffts skipped in vtowfk until now =6
     eigenvalues (hartree) for   10  bands
              after    2 non-SCF iterations with    4 CG line minimizations
 -2.6052E+00 -1.3472E+00 -1.3406E+00 -1.3406E+00  2.8052E-01  3.7707E-01
  3.8912E-01  3.8912E-01  4.4299E-01  4.4299E-01
 Total charge density [el/Bohr^3]
      Maximum=    1.8347E+00  at reduced coord.    0.1500    0.8750    0.9750
      Minimum=    1.8559E-02  at reduced coord.    0.5000    0.5000    0.5000
   Integrated=    1.8000E+01
 ETOT  3  -135.47578857302    -6.395E-02 1.373E-03 2.946E-01
 scprqt: <Vxc>= -5.0452356E-01 hartree

[...]

 Pulay update with  5 previous iterations:
 mixing of old trial potential : alpha(m:m-4)=   1.03     -0.200E-01 -0.777E-02 -0.186E-03  0.756E-04
 scfcv: previous iteration took 00 [s]

 ITER STEP NUMBER     7
 vtorho : nnsclo_now=1, note that nnsclo,dbl_nnsclo,istep=0 0 7
 non-scf iterations; kpt #     1  , k= ( -0.25000  0.50000  0.00000  ), band residuals:
 res:  8.68E-14  7.90E-14  2.67E-14  1.75E-14  1.70E-13  1.64E-13  3.39E-13  1.02E-13
 res:  1.68E-13  1.33E-11
 ene: -2.62E+00 -1.37E+00 -1.36E+00 -1.36E+00  2.99E-01  3.28E-01  3.84E-01  4.11E-01
 ene:  4.74E-01  6.06E-01
 vtowfk : number of one-way 3D ffts skipped in vtowfk until now =13
     eigenvalues (hartree) for   10  bands
              after    2 non-SCF iterations with    4 CG line minimizations
 -2.6172E+00 -1.3652E+00 -1.3586E+00 -1.3564E+00  2.9923E-01  3.2753E-01
  3.8356E-01  4.1097E-01  4.7359E-01  6.0551E-01
 non-scf iterations; kpt #     2  , k= ( -0.25000  0.00000  0.00000  ), band residuals:
 res:  1.56E-13  3.66E-14  1.89E-14  1.89E-14  3.48E-13  2.65E-13  6.29E-15  6.29E-15
 res:  7.61E-15  7.61E-15
 ene: -2.62E+00 -1.36E+00 -1.35E+00 -1.35E+00  2.67E-01  3.64E-01  3.77E-01  3.77E-01
 ene:  4.31E-01  4.31E-01
 vtowfk : number of one-way 3D ffts skipped in vtowfk until now =14
     eigenvalues (hartree) for   10  bands
              after    2 non-SCF iterations with    4 CG line minimizations
 -2.6186E+00 -1.3602E+00 -1.3535E+00 -1.3535E+00  2.6686E-01  3.6412E-01
  3.7665E-01  3.7665E-01  4.3061E-01  4.3061E-01
 Total charge density [el/Bohr^3]
      Maximum=    1.8347E+00  at reduced coord.    0.1500    0.8750    0.9750
      Minimum=    1.8646E-02  at reduced coord.    0.5000    0.5000    0.5000
   Integrated=    1.8000E+01
 ETOT  7  -135.47582860634    -2.748E-11 1.331E-11 2.423E-08
 scprqt: <Vxc>= -5.0479546E-01 hartree

 At SCF step    7, etot is converged :
  for the second time, diff in etot=  2.748E-11 < toldfe=  1.000E-06

 Cartesian components of stress tensor (hartree/bohr^3)
  sigma(1 1)= -5.53470964E-04  sigma(3 2)=  0.00000000E+00
  sigma(2 2)= -5.53470964E-04  sigma(3 1)=  0.00000000E+00
  sigma(3 3)= -5.53470964E-04  sigma(2 1)=  0.00000000E+00

 fftdatar_write: About to write data to: PdDOS_o_DEN with iomode IO_MODE_FORTRAN
 tetrahedron : integrate to  2.00000000E+01

 ----iterations are completed or convergence reached----

 Mean square residual over all n,k,spin=   7.6682E-13; max=  1.3312E-11
  -0.2500  0.5000  0.0000    1  1.33121E-11 kpt; spin; max resid(k); each band:
  8.68E-14 7.90E-14 2.67E-14 1.75E-14 1.70E-13 1.64E-13 3.39E-13 1.02E-13
  1.68E-13 1.33E-11
  -0.2500  0.0000  0.0000    1  3.47780E-13 kpt; spin; max resid(k); each band:
  1.56E-13 3.66E-14 1.89E-14 1.89E-14 3.48E-13 2.65E-13 6.29E-15 6.29E-15
  7.61E-15 7.61E-15

 outwf: write wavefunction to file PdDOS_o_WFK, with iomode -1
 prteigrs : about to open file PdDOS_o_EIG
 Fermi (or HOMO) energy (hartree) =   0.47359   Average Vxc (hartree)=  -0.50480
 Eigenvalues (hartree) for nkpt=   2  k points:
 kpt#   1, nband= 10, wtk=  0.75000, kpt= -0.2500  0.5000  0.0000 (reduced coord)
  -2.61721   -1.36518   -1.35863   -1.35641    0.29923    0.32753    0.38356    0.41097
   0.47359    0.60551
 kpt#   2, nband= 10, wtk=  0.25000, kpt= -0.2500  0.0000  0.0000 (reduced coord)
  -2.61857   -1.36018   -1.35354   -1.35354    0.26686    0.36412    0.37665    0.37665
   0.43061    0.43061
 Total charge density [el/Bohr^3]
      Maximum=    1.8347E+00  at reduced coord.    0.1500    0.8750    0.9750
 Next maximum=    1.8347E+00  at reduced coord.    0.0000    0.8750    0.9750
      Minimum=    1.8646E-02  at reduced coord.    0.5000    0.5000    0.5000
 Next minimum=    1.8741E-02  at reduced coord.    0.5000    0.5000    0.4750
   Integrated=    1.8000E+01

 Cartesian components of stress tensor (hartree/bohr^3)
  sigma(1 1)= -5.53470964E-04  sigma(3 2)=  0.00000000E+00
  sigma(2 2)= -5.53470964E-04  sigma(3 1)=  0.00000000E+00
  sigma(3 3)= -5.53470964E-04  sigma(2 1)=  0.00000000E+00

-Cartesian components of stress tensor (GPa)         [Pressure=  1.6284E+01 GPa]
- sigma(1 1)= -1.62836752E+01  sigma(3 2)=  0.00000000E+00
- sigma(2 2)= -1.62836752E+01  sigma(3 1)=  0.00000000E+00
- sigma(3 3)= -1.62836752E+01  sigma(2 1)=  0.00000000E+00

== END DATASET(S) ==============================================================

 -outvars: echo values of variables after computation  --------
            acell      7.3524000000E+00  7.3524000000E+00  7.3524000000E+00 Bohr
              amu      1.06420000E+02
           diemac      1.20000000E+01
             ecut      6.00000000E+01 Hartree
           etotal     -1.3547582861E+02
            fcart     -0.0000000000E+00 -0.0000000000E+00 -0.0000000000E+00
-          fftalg         112
           getwfk          -1
              ixc          11
              kpt     -2.50000000E-01  5.00000000E-01  0.00000000E+00
                      -2.50000000E-01  0.00000000E+00  0.00000000E+00
         kptrlatt        2   -2    2     -2    2    2     -2   -2    2
          kptrlen      1.47048000E+01
P           mkmem           2
            natom           1
            nband          10
            ngfft          40      40      40
             nkpt           2
            nstep          40
             nsym          48
           ntypat           1
              occ      2.000000  2.000000  2.000000  2.000000  2.000000  2.000000
                       2.000000  2.000000  2.000000  0.000000
           prtdos           2
            rprim      0.0000000000E+00  5.0000000000E-01  5.0000000000E-01
                       5.0000000000E-01  0.0000000000E+00  5.0000000000E-01
                       5.0000000000E-01  5.0000000000E-01  0.0000000000E+00
           shiftk      5.00000000E-01  5.00000000E-01  5.00000000E-01
          spgroup         225
           strten     -5.5347096353E-04 -5.5347096353E-04 -5.5347096353E-04
                       0.0000000000E+00  0.0000000000E+00  0.0000000000E+00
           symrel      1  0  0   0  1  0   0  0  1      -1  0  0   0 -1  0   0  0 -1
                       0 -1  1   0 -1  0   1 -1  0       0  1 -1   0  1  0  -1  1  0
                      -1  0  0  -1  0  1  -1  1  0       1  0  0   1  0 -1   1 -1  0
                       0  1 -1   1  0 -1   0  0 -1       0 -1  1  -1  0  1   0  0  1
                      -1  0  0  -1  1  0  -1  0  1       1  0  0   1 -1  0   1  0 -1
                       0 -1  1   1 -1  0   0 -1  0       0  1 -1  -1  1  0   0  1  0
                       1  0  0   0  0  1   0  1  0      -1  0  0   0  0 -1   0 -1  0
                       0  1 -1   0  0 -1   1  0 -1       0 -1  1   0  0  1  -1  0  1
                      -1  0  1  -1  1  0  -1  0  0       1  0 -1   1 -1  0   1  0  0
                       0 -1  0   1 -1  0   0 -1  1       0  1  0  -1  1  0   0  1 -1
                       1  0 -1   0  0 -1   0  1 -1      -1  0  1   0  0  1   0 -1  1
                       0  1  0   0  0  1   1  0  0       0 -1  0   0  0 -1  -1  0  0
                       1  0 -1   0  1 -1   0  0 -1      -1  0  1   0 -1  1   0  0  1
                       0 -1  0   0 -1  1   1 -1  0       0  1  0   0  1 -1  -1  1  0
                      -1  0  1  -1  0  0  -1  1  0       1  0 -1   1  0  0   1 -1  0
                       0  1  0   1  0  0   0  0  1       0 -1  0  -1  0  0   0  0 -1
                       0  0 -1   0  1 -1   1  0 -1       0  0  1   0 -1  1  -1  0  1
                       1 -1  0   0 -1  1   0 -1  0      -1  1  0   0  1 -1   0  1  0
                       0  0  1   1  0  0   0  1  0       0  0 -1  -1  0  0   0 -1  0
                      -1  1  0  -1  0  0  -1  0  1       1 -1  0   1  0  0   1  0 -1
                       0  0  1   0  1  0   1  0  0       0  0 -1   0 -1  0  -1  0  0
                       1 -1  0   0 -1  0   0 -1  1      -1  1  0   0  1  0   0  1 -1
                       0  0 -1   1  0 -1   0  1 -1       0  0  1  -1  0  1   0 -1  1
                      -1  1  0  -1  0  1  -1  0  0       1 -1  0   1  0 -1   1  0  0
           toldfe      1.00000000E-06 Hartree
            typat      1
              wtk        0.75000    0.25000
            znucl       46.00000

 Suggested references for the acknowledgment of ABINIT usage.

 Calculation completed.
.Delivered   0 WARNINGs and   2 COMMENTs to log file.

--- !FinalSummary
program: abinit
version: 8.6.3
start_datetime: Fri Apr 27 21:53:55 2018
end_datetime: Fri Apr 27 21:53:58 2018
overall_cpu_time:           2.5
overall_wall_time:           3.1
exit_requested_by_user: no
timelimit: 0
pseudos:
    Pd  : 4144628137bc01fa80f914e5e2c5b797
usepaw: 0
mpi_procs: 1
omp_threads: 1
num_warnings: 0
num_comments: 2
...