.Version 8.6.3 of ABINIT
.(sequential version, prepared for a x86_64_linux_gnu5.4 computer)

 ABINIT is a project of the Universite Catholique de Louvain,
 Corning Inc. and other collaborators, see ~abinit/doc/developers/contributors.txt .
 Please read ~abinit/doc/users/acknowledgments.html for suggested
 acknowledgments of the ABINIT effort.

.Starting date : Sat 21 Apr 2018.
- ( at 11h57 )

 === Build Information ===
  Version       : 8.6.3
  Build target  : x86_64_linux_gnu5.4
  Build date    : 20180412

 === Optimizations ===
  Debug level        : basic
  Optimization level : standard
  Architecture       : unknown_unknown

 === Multicore ===
  Parallel build : no
  Parallel I/O   : no
  openMP support : no
  GPU support    : no

 === Connectors / Fallbacks ===
  Connectors on : yes
  Fallbacks on  : yes
  DFT flavor    : none
  FFT flavor    : none
  LINALG flavor : netlib-fallback
  MATH flavor   : none
  TIMER flavor  : abinit
  TRIO flavor   : none

 === Experimental features ===
  Bindings            : @enable_bindings@
  Exports             : no
  GW double-precision : no

 Default optimizations:
   -O2 -mtune=native -march=native

 Optimizations for 20_datashare:
   -O0

 CPP options activated during the build:

                    CC_GNU                   CXX_GNU                    FC_GNU

 HAVE_FC_ALLOCATABLE_DT...             HAVE_FC_ASYNC         HAVE_FC_BACKTRACE

  HAVE_FC_COMMAND_ARGUMENT      HAVE_FC_COMMAND_LINE        HAVE_FC_CONTIGUOUS

           HAVE_FC_CPUTIME              HAVE_FC_EXIT             HAVE_FC_FLUSH

             HAVE_FC_GAMMA            HAVE_FC_GETENV   HAVE_FC_IEEE_EXCEPTIONS

          HAVE_FC_INT_QUAD             HAVE_FC_IOMSG     HAVE_FC_ISO_C_BINDING

  HAVE_FC_ISO_FORTRAN_2008        HAVE_FC_LONG_LINES        HAVE_FC_MOVE_ALLOC

           HAVE_FC_PRIVATE         HAVE_FC_PROTECTED         HAVE_FC_STREAM_IO

            HAVE_FC_SYSTEM          HAVE_FORTRAN2003        HAVE_LIBPAW_ABINIT

      HAVE_LIBTETRA_ABINIT             HAVE_OS_LINUX         HAVE_TIMER_ABINIT

              USE_MACROAVE

- input  file    -> PdDOS.in
- output file    -> PdDOS.out
- root for input  files -> PdDOS_i
- root for output files -> PdDOS_o

-instrng: 88 lines of input have been read from file PdDOS.in

 Please give name of formatted atomic psp file
 iofn2 : for atom type 1, psp file is ../../../Psps_for_tests/Pd.psp8
  read the values zionpsp= 18.0 , pspcod=   8 , lmax=   2

 inpspheads: deduce mpsang = 3, n1xccc = 2501.
 invars1 : treat image number: 1

 symlatt : the Bravais lattice is cF (face-centered cubic)
  xred   is defined in input file
 ingeo : takes atomic coordinates from input array xred
 symfind : exit, nsym=48
   symrel matrices, symafm and tnons are :
   1       1   0   0     0   1   0     0   0   1       1      0.0000  0.0000  0.0000
   2      -1   0   0     0  -1   0     0   0  -1       1      0.0000  0.0000  0.0000
   3       0  -1   1     0  -1   0     1  -1   0       1      0.0000  0.0000  0.0000
   4       0   1  -1     0   1   0    -1   1   0       1      0.0000  0.0000  0.0000
   5      -1   0   0    -1   0   1    -1   1   0       1      0.0000  0.0000  0.0000
   6       1   0   0     1   0  -1     1  -1   0       1      0.0000  0.0000  0.0000
   7       0   1  -1     1   0  -1     0   0  -1       1      0.0000  0.0000  0.0000
   8       0  -1   1    -1   0   1     0   0   1       1      0.0000  0.0000  0.0000
   9      -1   0   0    -1   1   0    -1   0   1       1      0.0000  0.0000  0.0000
  10       1   0   0     1  -1   0     1   0  -1       1      0.0000  0.0000  0.0000
  11       0  -1   1     1  -1   0     0  -1   0       1      0.0000  0.0000  0.0000
  12       0   1  -1    -1   1   0     0   1   0       1      0.0000  0.0000  0.0000
  13       1   0   0     0   0   1     0   1   0       1      0.0000  0.0000  0.0000
  14      -1   0   0     0   0  -1     0  -1   0       1      0.0000  0.0000  0.0000
  15       0   1  -1     0   0  -1     1   0  -1       1      0.0000  0.0000  0.0000
  16       0  -1   1     0   0   1    -1   0   1       1      0.0000  0.0000  0.0000
  17      -1   0   1    -1   1   0    -1   0   0       1      0.0000  0.0000  0.0000
  18       1   0  -1     1  -1   0     1   0   0       1      0.0000  0.0000  0.0000
  19       0  -1   0     1  -1   0     0  -1   1       1      0.0000  0.0000  0.0000
  20       0   1   0    -1   1   0     0   1  -1       1      0.0000  0.0000  0.0000
  21       1   0  -1     0   0  -1     0   1  -1       1      0.0000  0.0000  0.0000
  22      -1   0   1     0   0   1     0  -1   1       1      0.0000  0.0000  0.0000
  23       0   1   0     0   0   1     1   0   0       1      0.0000  0.0000  0.0000
  24       0  -1   0     0   0  -1    -1   0   0       1      0.0000  0.0000  0.0000
  25       1   0  -1     0   1  -1     0   0  -1       1      0.0000  0.0000  0.0000
  26      -1   0   1     0  -1   1     0   0   1       1      0.0000  0.0000  0.0000
  27       0  -1   0     0  -1   1     1  -1   0       1      0.0000  0.0000  0.0000
  28       0   1   0     0   1  -1    -1   1   0       1      0.0000  0.0000  0.0000
  29      -1   0   1    -1   0   0    -1   1   0       1      0.0000  0.0000  0.0000
  30       1   0  -1     1   0   0     1  -1   0       1      0.0000  0.0000  0.0000
  31       0   1   0     1   0   0     0   0   1       1      0.0000  0.0000  0.0000
  32       0  -1   0    -1   0   0     0   0  -1       1      0.0000  0.0000  0.0000
  33       0   0  -1     0   1  -1     1   0  -1       1      0.0000  0.0000  0.0000
  34       0   0   1     0  -1   1    -1   0   1       1      0.0000  0.0000  0.0000
  35       1  -1   0     0  -1   1     0  -1   0       1      0.0000  0.0000  0.0000
  36      -1   1   0     0   1  -1     0   1   0       1      0.0000  0.0000  0.0000
  37       0   0   1     1   0   0     0   1   0       1      0.0000  0.0000  0.0000
  38       0   0  -1    -1   0   0     0  -1   0       1      0.0000  0.0000  0.0000
  39      -1   1   0    -1   0   0    -1   0   1       1      0.0000  0.0000  0.0000
  40       1  -1   0     1   0   0     1   0  -1       1      0.0000  0.0000  0.0000
  41       0   0   1     0   1   0     1   0   0       1      0.0000  0.0000  0.0000
  42       0   0  -1     0  -1   0    -1   0   0       1      0.0000  0.0000  0.0000
  43       1  -1   0     0  -1   0     0  -1   1       1      0.0000  0.0000  0.0000
  44      -1   1   0     0   1   0     0   1  -1       1      0.0000  0.0000  0.0000
  45       0   0  -1     1   0  -1     0   1  -1       1      0.0000  0.0000  0.0000
  46       0   0   1    -1   0   1     0  -1   1       1      0.0000  0.0000  0.0000
  47      -1   1   0    -1   0   1    -1   0   0       1      0.0000  0.0000  0.0000
  48       1  -1   0     1   0  -1     1   0   0       1      0.0000  0.0000  0.0000

 symlatt : the Bravais lattice is cF (face-centered cubic)

 symlatt : the Bravais lattice is cF (face-centered cubic)
 symspgr : spgroup= 225  Fm -3 m   (=Oh^5)
 symspgr : optical characteristics = isotropic
 ingeo : angdeg(1:3)=   60.00000000   60.00000000   60.00000000
 invars2: take the default value of fband=  1.25000000E-01
 chkneu : initialized the occupation numbers for occopt=    1, spin-unpolarized or antiferromagnetic case :
  2.00  2.00  2.00  2.00  2.00  2.00  2.00  2.00  2.00  0.00
mpi_setup: mkmem  undefined in the input file.Use default mkmem  = nkpt
 mpi_setup: With nkpt_me=2 and mkmem  = 2, ground state wf handled in core.
mpi_setup: mkqmem undefined in the input file.Use default mkqmem = nkpt
 mpi_setup: With nkpt_me=2 and mkqmem = 2, ground state wf handled in core.
mpi_setup: mk1mem undefined in the input file.Use default mk1mem = nkpt
 mpi_setup: With nkpt_me=2 and mk1mem = 2, ground state wf handled in core.
 For input ecut=  8.820000E+00 best grid ngfft=      15      15      15
       max ecut=  9.043369E+00

 ==== FFT mesh ====
  FFT mesh divisions ........................    15   15   15
  Augmented FFT divisions ...................    15   15   15
  FFT algorithm .............................   112
  FFT cache size ............................    16
 getmpw: optimal value of mpw= 126

 Symmetries : space group Fm -3 m (#225); Bravais cF (face-center cubic)

 getdim_nloc : deduce lmnmax  =  18, lnmax  =   6,
                      lmnmaxso=  18, lnmaxso=   6.
     intxc =       0    ionmov =       2      iscf =       7    lmnmax =       6
     lnmax =       6     mgfft =      15  mpssoang =       3    mqgrid =    3001
     natom =       1  nloc_mem =       1    nspden =       1   nspinor =       1
    nsppol =       1      nsym =      48    n1xccc =    2501    ntypat =       1
    occopt =       1   xclevel =       2
-    mband =          10        mffmem =           1         mkmem =           2
       mpw =         126          nfft =        3375          nkpt =           2
  Rough estimation (10% accuracy) of disk space for files :

 The job will continue.
------------- Echo of variables that govern the present computation ------------
-
- outvars: echo of selected default values
-   iomode0 =  0 , fftalg0 =112 , wfoptalg0 =  0
-
- outvars: echo of global parameters not present in the input file
-  max_nthreads =    0
-
 -outvars: echo values of preprocessed input variables --------
            acell      7.3500000000E+00  7.3500000000E+00  7.3500000000E+00 Bohr
              amu      1.06420000E+02
           diemac      1.20000000E+01
          dilatmx      1.05000000E+00
             ecut      8.00000000E+00 Hartree
           ecutsm      5.00000000E-01 Hartree
-          fftalg         112
           getwfk          -1
           ionmov           2
              ixc          11
              kpt     -2.50000000E-01  5.00000000E-01  0.00000000E+00
                      -2.50000000E-01  0.00000000E+00  0.00000000E+00
         kptrlatt        2   -2    2     -2    2    2     -2   -2    2
          kptrlen      1.47000000E+01
P           mkmem           2
            natom           1
            nband          10
            ngfft          15      15      15
             nkpt           2
            nstep          10
             nsym          48
            ntime          10
           ntypat           1
              occ      2.000000  2.000000  2.000000  2.000000  2.000000  2.000000
                       2.000000  2.000000  2.000000  0.000000
          optcell           1
           prtdos           2
            rprim      0.0000000000E+00  5.0000000000E-01  5.0000000000E-01
                       5.0000000000E-01  0.0000000000E+00  5.0000000000E-01
                       5.0000000000E-01  5.0000000000E-01  0.0000000000E+00
           shiftk      5.00000000E-01  5.00000000E-01  5.00000000E-01
          spgroup         225
           symrel      1  0  0   0  1  0   0  0  1      -1  0  0   0 -1  0   0  0 -1
                       0 -1  1   0 -1  0   1 -1  0       0  1 -1   0  1  0  -1  1  0
                      -1  0  0  -1  0  1  -1  1  0       1  0  0   1  0 -1   1 -1  0
                       0  1 -1   1  0 -1   0  0 -1       0 -1  1  -1  0  1   0  0  1
                      -1  0  0  -1  1  0  -1  0  1       1  0  0   1 -1  0   1  0 -1
[...]
 Unitary Cell Volume (ucvol) [Bohr^3]=  1.11834950785954E+02
 Angles (23,13,12)= [degrees]
  6.00000000000000E+01  6.00000000000000E+01  6.00000000000000E+01
 Lengths [Bohr]
  5.40792736160311E+00  5.40792736160311E+00  5.40792736160311E+00
 Stress tensor in cartesian coordinates (strten) [Ha/bohr^3]
 -1.95066020056873E-02  0.00000000000000E+00  0.00000000000000E+00
  0.00000000000000E+00 -1.95066020056873E-02  0.00000000000000E+00
  0.00000000000000E+00  0.00000000000000E+00 -1.95066020056873E-02
 Total energy (etotal) [Ha]= -1.30197987053063E+02

 Difference of energy with previous step (new-old):
           Absolute (Ha)=-1.43500E-02
           Relative     =-1.10222E-04
 fconv : at Broyd/MD step   2, gradients have not converged yet.
  max grad (force/stress) = 1.9507E+00 > tolmxf= 5.0000E-05 ha/bohr (free atoms)

 Geometry Optimization Precondition:           0
 EXIT:           1           1
 mover: previous time step took 00 [s]

[...]

 getcut : COMMENT -
  Note that boxcut > 2.2 ; recall that boxcut=Gcut(box)/Gcut(sphere) = 2
  is sufficient for exact treatment of convolution.
  Such a large boxcut is a waste : you could raise ecut
  e.g. ecut=   10.338424 Hartrees makes boxcut=2

[...]

 Difference of energy with previous step (new-old):
           Absolute (Ha)= 5.92086E-02
           Relative     = 4.54862E-04
 fconv : at Broyd/MD step   3, gradients have not converged yet.
  max grad (force/stress) = 4.6184E+00 > tolmxf= 5.0000E-05 ha/bohr (free atoms)

[...]

 Geometry Optimization Precondition:           0

--- !WARNING
src_file: mover.F90
src_line: 834
message: |
    The new primitive vectors rprimd (an evolving quantity)
    are too large with respect to the old rprimd and the accompanying dilatmx:    1.050000E+00
    This large change of unit cell parameters is not allowed by the present value of dilatmx.
    An adequate value would have been dilatmx_new=    1.186892E+00
    Calculation continues with limited jump, by rescaling the projected move by the factor    2.407807E-01.
...

 EXIT:           1           1
 mover: previous time step took 00 [s]

[...]

 Difference of energy with previous step (new-old):
           Absolute (Ha)= 5.25544E-03
           Relative     = 4.03608E-05
 fconv : at Broyd/MD step   8, gradients have not converged yet.
  max grad (force/stress) = 6.4204E-01 > tolmxf= 5.0000E-05 ha/bohr (free atoms)

[...]

--- Iteration: ( 9/10) Internal Cycle: (1/1)

[...]

 Difference of energy with previous step (new-old):
           Absolute (Ha)=-6.68805E-03
           Relative     =-5.13627E-05
 fconv : at Broyd/MD step   9, gradients have not converged yet.
  max grad (force/stress) = 1.8929E-01 > tolmxf= 5.0000E-05 ha/bohr (free atoms)

 Geometry Optimization Precondition:           0
 EXIT:           1           1
 mover: previous time step took 00 [s]

--- Iteration: (10/10) Internal Cycle: (1/1)

 Cartesian coordinates (xcart) [bohr]
  0.00000000000000E+00  0.00000000000000E+00  0.00000000000000E+00
 Reduced coordinates (xred)
  0.00000000000000E+00  0.00000000000000E+00  0.00000000000000E+00
 Scale of Primitive Cell (acell) [bohr]
  7.44839630726466E+00  7.44839630726466E+00  7.44839630726466E+00
 Real space primitive translations (rprimd) [bohr]
  0.00000000000000E+00  3.72419815363233E+00  3.72419815363233E+00
  3.72419815363233E+00  0.00000000000000E+00  3.72419815363233E+00
  3.72419815363233E+00  3.72419815363233E+00  0.00000000000000E+00
 Unitary Cell Volume (ucvol) [Bohr^3]=  1.03306663902039E+02
 Angles (23,13,12)= [degrees]
  6.00000000000000E+01  6.00000000000000E+01  6.00000000000000E+01
 Lengths [Bohr]
  5.26681153783168E+00  5.26681153783168E+00  5.26681153783168E+00

---SELF-CONSISTENT-FIELD CONVERGENCE--------------------------------------------

 getcut: wavevector=  0.0000  0.0000  0.0000  ngfft=  15  15  15
         ecut(hartree)=      8.000   => boxcut(ratio)=   2.09833

[...]

Simple mixing update:
  residual square of the potential :   9.5470515753168089E-002
 scfcv: previous iteration took 00 [s]

 ITER STEP NUMBER     2
 vtorho : nnsclo_now=2, note that nnsclo,dbl_nnsclo,istep=0 0 2
 non-scf iterations; kpt #     1  , k= ( -0.25000  0.50000  0.00000  ), band residuals:
 res:  1.31E-06  3.67E-06  1.77E-07  5.27E-07  6.06E-06  4.47E-06  1.12E-05  1.81E-07
 res:  3.40E-08  1.82E-05
 ene: -3.22E+00 -1.79E+00 -1.79E+00 -1.78E+00  3.41E-01  3.96E-01  4.57E-01  5.16E-01
 ene:  5.92E-01  6.83E-01
 res:  3.88E-12  2.08E-11  8.40E-12  1.49E-12  5.91E-12  1.30E-10  3.69E-11  1.51E-11
 res:  2.43E-11  3.92E-09
 ene: -3.22E+00 -1.79E+00 -1.79E+00 -1.78E+00  3.41E-01  3.96E-01  4.57E-01  5.16E-01
 ene:  5.92E-01  6.83E-01
 vtowfk : number of one-way 3D ffts skipped in vtowfk until now =115
     eigenvalues (hartree) for   10  bands
              after    3 non-SCF iterations with    4 CG line minimizations
 -3.2171E+00 -1.7894E+00 -1.7882E+00 -1.7829E+00  3.4125E-01  3.9632E-01
  4.5707E-01  5.1586E-01  5.9200E-01  6.8339E-01
 non-scf iterations; kpt #     2  , k= ( -0.25000  0.00000  0.00000  ), band residuals:
 res:  2.45E-06  1.49E-07  1.50E-07  1.54E-06  6.26E-06  1.76E-07  1.72E-07  3.93E-06
 res:  3.05E-07  3.07E-07
 ene: -3.22E+00 -1.78E+00 -1.78E+00 -1.75E+00  2.85E-01  4.48E-01  4.48E-01  4.56E-01
 ene:  5.48E-01  5.49E-01
 res:  2.53E-12  2.29E-13  2.31E-13  4.10E-13  2.52E-12  8.71E-12  6.81E-11  8.72E-12
 res:  3.12E-12  6.66E-12
 ene: -3.22E+00 -1.78E+00 -1.78E+00 -1.75E+00  2.85E-01  4.48E-01  4.48E-01  4.56E-01
 ene:  5.48E-01  5.49E-01
 vtowfk : number of one-way 3D ffts skipped in vtowfk until now =116
     eigenvalues (hartree) for   10  bands
              after    3 non-SCF iterations with    4 CG line minimizations
 -3.2192E+00 -1.7827E+00 -1.7824E+00 -1.7453E+00  2.8482E-01  4.4757E-01
  4.4793E-01  4.5576E-01  5.4806E-01  5.4862E-01
 Total charge density [el/Bohr^3]
      Maximum=    1.1624E+00  at reduced coord.    0.0000    0.1333    0.8667
      Minimum=    1.8696E-02  at reduced coord.    0.5333    0.4667    0.4667
   Integrated=    1.8000E+01
 ETOT  2  -130.21545299346    -2.400E-04 3.921E-09 3.241E-02
 scprqt: <Vxc>= -5.1647385E-01 hartree

[...]

 Pulay update with  3 previous iterations:
 mixing of old trial potential : alpha(m:m-4)=   1.14     -0.148      0.561E-02  0.213E-03
 scfcv: previous iteration took 00 [s]

 ITER STEP NUMBER     5
 vtorho : nnsclo_now=1, note that nnsclo,dbl_nnsclo,istep=0 0 5
 non-scf iterations; kpt #     1  , k= ( -0.25000  0.50000  0.00000  ), band residuals:
 res:  1.60E-12  2.42E-12  5.89E-13  5.06E-13  7.66E-12  9.18E-12  7.15E-12  3.36E-12
 res:  3.04E-12  4.22E-11
 ene: -3.21E+00 -1.78E+00 -1.78E+00 -1.78E+00  3.43E-01  3.98E-01  4.59E-01  5.18E-01
 ene:  5.95E-01  6.85E-01
 vtowfk : number of one-way 3D ffts skipped in vtowfk until now =121
     eigenvalues (hartree) for   10  bands
              after    2 non-SCF iterations with    4 CG line minimizations
 -3.2117E+00 -1.7846E+00 -1.7835E+00 -1.7782E+00  3.4301E-01  3.9813E-01
  4.5892E-01  5.1827E-01  5.9483E-01  6.8534E-01
 non-scf iterations; kpt #     2  , k= ( -0.25000  0.00000  0.00000  ), band residuals:
 res:  2.28E-12  1.33E-13  3.15E-13  1.20E-12  1.16E-11  4.48E-12  1.44E-14  8.95E-12
 res:  4.43E-14  2.74E-12
 ene: -3.21E+00 -1.78E+00 -1.78E+00 -1.74E+00  2.86E-01  4.50E-01  4.50E-01  4.58E-01
 ene:  5.51E-01  5.51E-01
 vtowfk : number of one-way 3D ffts skipped in vtowfk until now =122
     eigenvalues (hartree) for   10  bands
              after    2 non-SCF iterations with    4 CG line minimizations
 -3.2138E+00 -1.7779E+00 -1.7777E+00 -1.7406E+00  2.8566E-01  4.4997E-01
  4.5030E-01  4.5762E-01  5.5059E-01  5.5114E-01
 Total charge density [el/Bohr^3]
      Maximum=    1.1616E+00  at reduced coord.    0.0000    0.1333    0.8667
      Minimum=    1.8816E-02  at reduced coord.    0.5333    0.4667    0.4667
   Integrated=    1.8000E+01
 ETOT  5  -130.21550291945    -1.545E-08 4.218E-11 2.341E-09
 scprqt: <Vxc>= -5.1683088E-01 hartree

 At SCF step    5, etot is converged :
  for the second time, diff in etot=  1.545E-08 < toldfe=  1.000E-06

[...]

 fftdatar_write: About to write data to: PdDOS_o_TIM10_DEN with iomode IO_MODE_FORTRAN
 tetrahedron : integrate to  2.00000000E+01

---OUTPUT-----------------------------------------------------------------------

 Cartesian coordinates (xcart) [bohr]
  0.00000000000000E+00  0.00000000000000E+00  0.00000000000000E+00
 Reduced coordinates (xred)
  0.00000000000000E+00  0.00000000000000E+00  0.00000000000000E+00
 Cartesian forces (fcart) [Ha/bohr]; max,rms= 0.00000E+00 0.00000E+00 (free atoms)
 -0.00000000000000E+00 -0.00000000000000E+00 -0.00000000000000E+00
 Reduced forces (fred)
  0.00000000000000E+00  0.00000000000000E+00  0.00000000000000E+00
 Scale of Primitive Cell (acell) [bohr]
  7.44839630726466E+00  7.44839630726466E+00  7.44839630726466E+00
 Real space primitive translations (rprimd) [bohr]
  0.00000000000000E+00  3.72419815363233E+00  3.72419815363233E+00
  3.72419815363233E+00  0.00000000000000E+00  3.72419815363233E+00
  3.72419815363233E+00  3.72419815363233E+00  0.00000000000000E+00
 Unitary Cell Volume (ucvol) [Bohr^3]=  1.03306663902039E+02
 Angles (23,13,12)= [degrees]
  6.00000000000000E+01  6.00000000000000E+01  6.00000000000000E+01
 Lengths [Bohr]
  5.26681153783168E+00  5.26681153783168E+00  5.26681153783168E+00
 Stress tensor in cartesian coordinates (strten) [Ha/bohr^3]
  1.95513403964197E-03  0.00000000000000E+00  0.00000000000000E+00
  0.00000000000000E+00  1.95513403964195E-03  0.00000000000000E+00
  0.00000000000000E+00  0.00000000000000E+00  1.95513403964194E-03
 Total energy (etotal) [Ha]= -1.30215502919447E+02

 Difference of energy with previous step (new-old):
           Absolute (Ha)= 1.12501E-05
           Relative     = 8.63964E-08

 fconv : WARNING -
  ntime=   10 was not enough Broyd/MD steps to converge gradients:
  max grad (force/stress) = 1.9551E-01 > tolmxf= 5.0000E-05 ha/bohr (free atoms)

--- !RelaxConvergenceWarning
message: |

     fconv : WARNING -
      ntime=   10 was not enough Broyd/MD steps to converge gradients:
      max grad (force/stress) = 1.9551E-01 > tolmxf= 5.0000E-05 ha/bohr (free atoms)

...
 Geometry Optimization Precondition:           0

 ----iterations are completed or convergence reached----

 Mean square residual over all n,k,spin=   5.4739E-12; max=  4.2181E-11
  -0.2500  0.5000  0.0000    1  4.21809E-11 kpt; spin; max resid(k); each band:
  1.60E-12 2.42E-12 5.89E-13 5.06E-13 7.66E-12 9.18E-12 7.15E-12 3.36E-12
  3.04E-12 4.22E-11
  -0.2500  0.0000  0.0000    1  1.16376E-11 kpt; spin; max resid(k); each band:
  2.28E-12 1.33E-13 3.15E-13 1.20E-12 1.16E-11 4.48E-12 1.44E-14 8.95E-12
  4.43E-14 2.74E-12

 outwf: write wavefunction to file PdDOS_o_WFK, with iomode -1
 prteigrs : about to open file PdDOS_o_EIG
 Fermi (or HOMO) energy (hartree) =   0.59483   Average Vxc (hartree)=  -0.51683
 Eigenvalues (hartree) for nkpt=   2  k points:
 kpt#   1, nband= 10, wtk=  0.75000, kpt= -0.2500  0.5000  0.0000 (reduced coord)
  -3.21173   -1.78465   -1.78347   -1.77817    0.34301    0.39813    0.45892    0.51827
   0.59483    0.68534
 kpt#   2, nband= 10, wtk=  0.25000, kpt= -0.2500  0.0000  0.0000 (reduced coord)
  -3.21384   -1.77794   -1.77767   -1.74062    0.28566    0.44997    0.45030    0.45762
   0.55059    0.55114
 Total charge density [el/Bohr^3]
      Maximum=    1.1616E+00  at reduced coord.    0.0000    0.1333    0.8667
 Next maximum=    1.1616E+00  at reduced coord.    0.1333    0.0000    0.8667
      Minimum=    1.8816E-02  at reduced coord.    0.5333    0.4667    0.4667
 Next minimum=    1.8816E-02  at reduced coord.    0.4667    0.5333    0.4667
   Integrated=    1.8000E+01

 Cartesian components of stress tensor (hartree/bohr^3)
  sigma(1 1)=  1.95513404E-03  sigma(3 2)=  0.00000000E+00
  sigma(2 2)=  1.95513404E-03  sigma(3 1)=  0.00000000E+00
  sigma(3 3)=  1.95513404E-03  sigma(2 1)=  0.00000000E+00

-Cartesian components of stress tensor (GPa)         [Pressure= -5.7522E+01 GPa]
- sigma(1 1)=  5.75220197E+01  sigma(3 2)=  0.00000000E+00
- sigma(2 2)=  5.75220197E+01  sigma(3 1)=  0.00000000E+00
- sigma(3 3)=  5.75220197E+01  sigma(2 1)=  0.00000000E+00

== END DATASET(S) ==============================================================

 -outvars: echo values of variables after computation  --------
            acell      7.4483963073E+00  7.4483963073E+00  7.4483963073E+00 Bohr
              amu      1.06420000E+02
           diemac      1.20000000E+01
          dilatmx      1.05000000E+00
             ecut      8.00000000E+00 Hartree
           ecutsm      5.00000000E-01 Hartree
           etotal     -1.3021550292E+02
            fcart     -0.0000000000E+00 -0.0000000000E+00 -0.0000000000E+00
-          fftalg         112
           getwfk          -1
           ionmov           2
              ixc          11
              kpt     -2.50000000E-01  5.00000000E-01  0.00000000E+00
                      -2.50000000E-01  0.00000000E+00  0.00000000E+00
         kptrlatt        2   -2    2     -2    2    2     -2   -2    2
          kptrlen      1.47000000E+01
P           mkmem           2
            natom           1
            nband          10
            ngfft          15      15      15
             nkpt           2
            nstep          10
             nsym          48
            ntime          10
           ntypat           1
              occ      2.000000  2.000000  2.000000  2.000000  2.000000  2.000000
                       2.000000  2.000000  2.000000  0.000000
          optcell           1
           prtdos           2
            rprim      0.0000000000E+00  5.0000000000E-01  5.0000000000E-01
                       5.0000000000E-01  0.0000000000E+00  5.0000000000E-01
                       5.0000000000E-01  5.0000000000E-01  0.0000000000E+00
           shiftk      5.00000000E-01  5.00000000E-01  5.00000000E-01
          spgroup         225
           strten      1.9551340396E-03  1.9551340396E-03  1.9551340396E-03
                       0.0000000000E+00  0.0000000000E+00  0.0000000000E+00
           symrel      1  0  0   0  1  0   0  0  1      -1  0  0   0 -1  0   0  0 -1
                       0 -1  1   0 -1  0   1 -1  0       0  1 -1   0  1  0  -1  1  0
                      -1  0  0  -1  0  1  -1  1  0       1  0  0   1  0 -1   1 -1  0
                       0  1 -1   1  0 -1   0  0 -1       0 -1  1  -1  0  1   0  0  1
                      -1  0  0  -1  1  0  -1  0  1       1  0  0   1 -1  0   1  0 -1
                       0 -1  1   1 -1  0   0 -1  0       0  1 -1  -1  1  0   0  1  0
                       1  0  0   0  0  1   0  1  0      -1  0  0   0  0 -1   0 -1  0
                       0  1 -1   0  0 -1   1  0 -1       0 -1  1   0  0  1  -1  0  1
                      -1  0  1  -1  1  0  -1  0  0       1  0 -1   1 -1  0   1  0  0
                       0 -1  0   1 -1  0   0 -1  1       0  1  0  -1  1  0   0  1 -1
                       1  0 -1   0  0 -1   0  1 -1      -1  0  1   0  0  1   0 -1  1
                       0  1  0   0  0  1   1  0  0       0 -1  0   0  0 -1  -1  0  0
                       1  0 -1   0  1 -1   0  0 -1      -1  0  1   0 -1  1   0  0  1
                       0 -1  0   0 -1  1   1 -1  0       0  1  0   0  1 -1  -1  1  0
                      -1  0  1  -1  0  0  -1  1  0       1  0 -1   1  0  0   1 -1  0
                       0  1  0   1  0  0   0  0  1       0 -1  0  -1  0  0   0  0 -1
                       0  0 -1   0  1 -1   1  0 -1       0  0  1   0 -1  1  -1  0  1
                       1 -1  0   0 -1  1   0 -1  0      -1  1  0   0  1 -1   0  1  0
                       0  0  1   1  0  0   0  1  0       0  0 -1  -1  0  0   0 -1  0
                      -1  1  0  -1  0  0  -1  0  1       1 -1  0   1  0  0   1  0 -1
                       0  0  1   0  1  0   1  0  0       0  0 -1   0 -1  0  -1  0  0
                       1 -1  0   0 -1  0   0 -1  1      -1  1  0   0  1  0   0  1 -1
                       0  0 -1   1  0 -1   0  1 -1       0  0  1  -1  0  1   0 -1  1
                      -1  1  0  -1  0  1  -1  0  0       1 -1  0   1  0 -1   1  0  0
           toldfe      1.00000000E-06 Hartree
            typat      1
              wtk        0.75000    0.25000
            znucl       46.00000

 Suggested references for the acknowledgment of ABINIT usage.

 Calculation completed.
.Delivered   2 WARNINGs and   1 COMMENTs to log file.

--- !FinalSummary
program: abinit
version: 8.6.3
start_datetime: Sat Apr 21 11:57:08 2018
end_datetime: Sat Apr 21 11:57:11 2018
overall_cpu_time:           3.1
overall_wall_time:           3.7
exit_requested_by_user: no
timelimit: 0
pseudos:
    Pd  : 4144628137bc01fa80f914e5e2c5b797
usepaw: 0
mpi_procs: 1
omp_threads: 1
num_warnings: 2
num_comments: 1
...