.Version 8.6.3 of ABINIT
.(sequential version, prepared for a x86_64_linux_gnu5.4 computer)

 ABINIT is a project of the Universite Catholique de Louvain,
 Corning Inc. and other collaborators, see ~abinit/doc/developers/contributors.txt .
 Please read ~abinit/doc/users/acknowledgments.html for suggested
 acknowledgments of the ABINIT effort.

.Starting date : Fri 27 Apr 2018.
- ( at 21h53 )

- input  file    -> PdDOS.in
- output file    -> PdDOS.out
- root for input  files -> PdDOS_i
- root for output files -> PdDOS_o

 Symmetries : space group Fm -3 m (#225); Bravais cF (face-center cubic)
     intxc =       0    ionmov =       0      iscf =       7    lmnmax =       6
     lnmax =       6     mgfft =      40  mpssoang =       3    mqgrid =    3001
     natom =       1  nloc_mem =       1    nspden =       1   nspinor =       1
    nsppol =       1      nsym =      48    n1xccc =    2501    ntypat =       1
    occopt =       1   xclevel =       2
-    mband =          10        mffmem =           1         mkmem =           2
       mpw =        2210          nfft =       64000          nkpt =           2
  Rough estimation (10% accuracy) of disk space for files :

------------- Echo of variables that govern the present computation ------------
-
- outvars: echo of selected default values
-   iomode0 =  0 , fftalg0 =112 , wfoptalg0 =  0
-
- outvars: echo of global parameters not present in the input file
-  max_nthreads =    0
-
 -outvars: echo values of preprocessed input variables --------
            acell      7.3524000000E+00  7.3524000000E+00  7.3524000000E+00 Bohr
              amu      1.06420000E+02
           diemac      1.20000000E+01
             ecut      6.00000000E+01 Hartree
-          fftalg         112
           getwfk          -1
              ixc          11
              kpt     -2.50000000E-01  5.00000000E-01  0.00000000E+00
                      -2.50000000E-01  0.00000000E+00  0.00000000E+00
         kptrlatt        2   -2    2     -2    2    2     -2   -2    2
          kptrlen      1.47048000E+01
P           mkmem           2
            natom           1
            nband          10
            ngfft          40      40      40
             nkpt           2
            nstep          40
             nsym          48
           ntypat           1
              occ      2.000000  2.000000  2.000000  2.000000  2.000000  2.000000
                       2.000000  2.000000  2.000000  0.000000
           prtdos           2
            rprim      0.0000000000E+00  5.0000000000E-01  5.0000000000E-01
                       5.0000000000E-01  0.0000000000E+00  5.0000000000E-01
                       5.0000000000E-01  5.0000000000E-01  0.0000000000E+00
           shiftk      5.00000000E-01  5.00000000E-01  5.00000000E-01
          spgroup         225
           symrel      1  0  0   0  1  0   0  0  1      -1  0  0   0 -1  0   0  0 -1
                       0 -1  1   0 -1  0   1 -1  0       0  1 -1   0  1  0  -1  1  0
                      -1  0  0  -1  0  1  -1  1  0       1  0  0   1  0 -1   1 -1  0
                       0  1 -1   1  0 -1   0  0 -1       0 -1  1  -1  0  1   0  0  1
                      -1  0  0  -1  1  0  -1  0  1       1  0  0   1 -1  0   1  0 -1
                       0 -1  1   1 -1  0   0 -1  0       0  1 -1  -1  1  0   0  1  0
                       1  0  0   0  0  1   0  1  0      -1  0  0   0  0 -1   0 -1  0
                       0  1 -1   0  0 -1   1  0 -1       0 -1  1   0  0  1  -1  0  1
                      -1  0  1  -1  1  0  -1  0  0       1  0 -1   1 -1  0   1  0  0
                       0 -1  0   1 -1  0   0 -1  1       0  1  0  -1  1  0   0  1 -1
                       1  0 -1   0  0 -1   0  1 -1      -1  0  1   0  0  1   0 -1  1
                       0  1  0   0  0  1   1  0  0       0 -1  0   0  0 -1  -1  0  0
                       1  0 -1   0  1 -1   0  0 -1      -1  0  1   0 -1  1   0  0  1
                       0 -1  0   0 -1  1   1 -1  0       0  1  0   0  1 -1  -1  1  0
                      -1  0  1  -1  0  0  -1  1  0       1  0 -1   1  0  0   1 -1  0
                       0  1  0   1  0  0   0  0  1       0 -1  0  -1  0  0   0  0 -1
                       0  0 -1   0  1 -1   1  0 -1       0  0  1   0 -1  1  -1  0  1
                       1 -1  0   0 -1  1   0 -1  0      -1  1  0   0  1 -1   0  1  0
                       0  0  1   1  0  0   0  1  0       0  0 -1  -1  0  0   0 -1  0
                      -1  1  0  -1  0  0  -1  0  1       1 -1  0   1  0  0   1  0 -1
                       0  0  1   0  1  0   1  0  0       0  0 -1   0 -1  0  -1  0  0
                       1 -1  0   0 -1  0   0 -1  1      -1  1  0   0  1  0   0  1 -1
                       0  0 -1   1  0 -1   0  1 -1       0  0  1  -1  0  1   0 -1  1
                      -1  1  0  -1  0  1  -1  0  0       1 -1  0   1  0 -1   1  0  0
           toldfe      1.00000000E-06 Hartree
            typat      1
              wtk        0.75000    0.25000
            znucl       46.00000

 chkinp: Checking input parameters for consistency.

== DATASET  1 ==================================================================
-   nproc =    1

 Real(R)+Recip(G) space primitive vectors, cartesian coordinates (Bohr,Bohr^-1):
 R(1)=  0.0000000  3.6762000  3.6762000  G(1)= -0.1360100  0.1360100  0.1360100
 R(2)=  3.6762000  0.0000000  3.6762000  G(2)=  0.1360100 -0.1360100  0.1360100
 R(3)=  3.6762000  3.6762000  0.0000000  G(3)=  0.1360100  0.1360100 -0.1360100
 Unit cell volume ucvol=  9.9363616E+01 bohr^3
 Angles (23,13,12)=  6.00000000E+01  6.00000000E+01  6.00000000E+01 degrees

 getcut: wavevector=  0.0000  0.0000  0.0000  ngfft=  40  40  40
         ecut(hartree)=     60.000   => boxcut(ratio)=   2.20651

 getcut : COMMENT -
  Note that boxcut > 2.2 ; recall that boxcut=Gcut(box)/Gcut(sphere) = 2
  is sufficient for exact treatment of convolution.
  Such a large boxcut is a waste : you could raise ecut
  e.g. ecut=   73.030031 Hartrees makes boxcut=2

--- Pseudopotential description ------------------------------------------------
- pspini: atom type   1  psp file is ../../../Psps_for_tests/Pd.psp8
- pspatm: opening atomic psp file    ../../../Psps_for_tests/Pd.psp8
- Pd    ONCVPSP-3.2.3.1  r_core=   1.41052   1.46191   1.55175
- 46.00000  18.00000    170510                znucl, zion, pspdat
    8   11    2    4       600   0.00000      pspcod,pspxc,lmax,lloc,mmax,r2well
    5.99000000000000    7.00000000000000    0.00000000000000   rchrg,fchrg,qchrg
     nproj     2     2     2
     extension_switch     1
  pspatm : epsatm=   26.09224486
         --- l  ekb(1:nproj) -->
             0    7.845850   -2.282160
             1    3.261104   -0.686948
             2   -1.134855   -0.401224
 pspatm: atomic psp has been read  and splines computed

   4.69660407E+02                                ecore*ucvol(ha*bohr**3)

_setup2: Arith. and geom. avg. npw (full set) are    2206.500    2206.492

     iter   Etot(hartree)      deltaE(h)  residm     vres2
 ETOT  1  -135.31638621959    -1.353E+02 1.697E-01 4.088E+02
 ETOT  2  -135.41184094683    -9.545E-02 1.401E-04 5.181E+02
 ETOT  3  -135.47578857302    -6.395E-02 1.373E-03 2.946E-01
 ETOT  4  -135.47582706739    -3.849E-05 1.490E-06 2.060E-02
 ETOT  5  -135.47582858883    -1.521E-06 6.440E-08 2.097E-04
 ETOT  6  -135.47582860631    -1.748E-08 8.601E-10 4.731E-07
 ETOT  7  -135.47582860634    -2.748E-11 1.331E-11 2.423E-08

 At SCF step    7, etot is converged :
  for the second time, diff in etot=  2.748E-11 < toldfe=  1.000E-06

 Cartesian components of stress tensor (hartree/bohr^3)
  sigma(1 1)= -5.53470964E-04  sigma(3 2)=  0.00000000E+00
  sigma(2 2)= -5.53470964E-04  sigma(3 1)=  0.00000000E+00
  sigma(3 3)= -5.53470964E-04  sigma(2 1)=  0.00000000E+00

 Integrated electronic density in atomic spheres:
 Atom  Sphere_radius  Integrated_density
    1        2.00000         15.26319335

 ----iterations are completed or convergence reached----

 Mean square residual over all n,k,spin=   7.6682E-13; max=  1.3312E-11
 reduced coordinates (array xred) for    1 atoms
       0.000000000000      0.000000000000      0.000000000000
 rms dE/dt=  0.0000E+00; max dE/dt=  0.0000E+00; dE/dt below (all hartree)
    1       0.000000000000      0.000000000000      0.000000000000

 cartesian coordinates (angstrom) at end:
    1      0.00000000000000     0.00000000000000     0.00000000000000

 cartesian forces (hartree/bohr) at end:
    1     -0.00000000000000    -0.00000000000000    -0.00000000000000
 frms,max,avg= 0.0000000E+00 0.0000000E+00   0.000E+00  0.000E+00  0.000E+00 h/b

 cartesian forces (eV/Angstrom) at end:
    1     -0.00000000000000    -0.00000000000000    -0.00000000000000
 frms,max,avg= 0.0000000E+00 0.0000000E+00   0.000E+00  0.000E+00  0.000E+00 e/A
 length scales=  7.352400000000  7.352400000000  7.352400000000 bohr
              =  3.890722508437  3.890722508437  3.890722508437 angstroms
 prteigrs : about to open file PdDOS_o_EIG
 Fermi (or HOMO) energy (hartree) =   0.47359   Average Vxc (hartree)=  -0.50480
 Eigenvalues (hartree) for nkpt=   2  k points:
 kpt#   1, nband= 10, wtk=  0.75000, kpt= -0.2500  0.5000  0.0000 (reduced coord)
  -2.61721   -1.36518   -1.35863   -1.35641    0.29923    0.32753    0.38356    0.41097
   0.47359    0.60551
 prteigrs : prtvol=0 or 1, do not print more k-points.

 Components of total free energy (in Hartree) :

    Kinetic energy  =  4.56331072589359E+01
    Hartree energy  =  2.58905240823247E+01
    XC energy       = -2.11887006078605E+01
    Ewald energy    = -1.01021116371040E+02
    PspCore energy  =  4.72668393443328E+00
    Loc. psp. energy= -9.07854355969183E+01
    NL   psp  energy=  1.26910869378779E+00
    >>>>>>>>> Etotal= -1.35475828606338E+02

 Other information on the energy :
    Total energy(eV)= -3.68648477595862E+03 ; Band energy (Ha)=  -9.6393071126E+00

 Cartesian components of stress tensor (hartree/bohr^3)
  sigma(1 1)= -5.53470964E-04  sigma(3 2)=  0.00000000E+00
  sigma(2 2)= -5.53470964E-04  sigma(3 1)=  0.00000000E+00
  sigma(3 3)= -5.53470964E-04  sigma(2 1)=  0.00000000E+00

-Cartesian components of stress tensor (GPa)         [Pressure=  1.6284E+01 GPa]
- sigma(1 1)= -1.62836752E+01  sigma(3 2)=  0.00000000E+00
- sigma(2 2)= -1.62836752E+01  sigma(3 1)=  0.00000000E+00
- sigma(3 3)= -1.62836752E+01  sigma(2 1)=  0.00000000E+00

== END DATASET(S) ==============================================================

 -outvars: echo values of variables after computation  --------
            acell      7.3524000000E+00  7.3524000000E+00  7.3524000000E+00 Bohr
              amu      1.06420000E+02
           diemac      1.20000000E+01
             ecut      6.00000000E+01 Hartree
           etotal     -1.3547582861E+02
            fcart     -0.0000000000E+00 -0.0000000000E+00 -0.0000000000E+00
-          fftalg         112
           getwfk          -1
              ixc          11
              kpt     -2.50000000E-01  5.00000000E-01  0.00000000E+00
                      -2.50000000E-01  0.00000000E+00  0.00000000E+00
         kptrlatt        2   -2    2     -2    2    2     -2   -2    2
          kptrlen      1.47048000E+01
P           mkmem           2
            natom           1
            nband          10
            ngfft          40      40      40
             nkpt           2
            nstep          40
             nsym          48
           ntypat           1
              occ      2.000000  2.000000  2.000000  2.000000  2.000000  2.000000
                       2.000000  2.000000  2.000000  0.000000
           prtdos           2
            rprim      0.0000000000E+00  5.0000000000E-01  5.0000000000E-01
                       5.0000000000E-01  0.0000000000E+00  5.0000000000E-01
                       5.0000000000E-01  5.0000000000E-01  0.0000000000E+00
           shiftk      5.00000000E-01  5.00000000E-01  5.00000000E-01
          spgroup         225
           strten     -5.5347096353E-04 -5.5347096353E-04 -5.5347096353E-04
                       0.0000000000E+00  0.0000000000E+00  0.0000000000E+00
           symrel      1  0  0   0  1  0   0  0  1      -1  0  0   0 -1  0   0  0 -1
                       0 -1  1   0 -1  0   1 -1  0       0  1 -1   0  1  0  -1  1  0
                      -1  0  0  -1  0  1  -1  1  0       1  0  0   1  0 -1   1 -1  0
                       0  1 -1   1  0 -1   0  0 -1       0 -1  1  -1  0  1   0  0  1
                      -1  0  0  -1  1  0  -1  0  1       1  0  0   1 -1  0   1  0 -1
                       0 -1  1   1 -1  0   0 -1  0       0  1 -1  -1  1  0   0  1  0
                       1  0  0   0  0  1   0  1  0      -1  0  0   0  0 -1   0 -1  0
                       0  1 -1   0  0 -1   1  0 -1       0 -1  1   0  0  1  -1  0  1
                      -1  0  1  -1  1  0  -1  0  0       1  0 -1   1 -1  0   1  0  0
                       0 -1  0   1 -1  0   0 -1  1       0  1  0  -1  1  0   0  1 -1
                       1  0 -1   0  0 -1   0  1 -1      -1  0  1   0  0  1   0 -1  1
                       0  1  0   0  0  1   1  0  0       0 -1  0   0  0 -1  -1  0  0
                       1  0 -1   0  1 -1   0  0 -1      -1  0  1   0 -1  1   0  0  1
                       0 -1  0   0 -1  1   1 -1  0       0  1  0   0  1 -1  -1  1  0
                      -1  0  1  -1  0  0  -1  1  0       1  0 -1   1  0  0   1 -1  0
                       0  1  0   1  0  0   0  0  1       0 -1  0  -1  0  0   0  0 -1
                       0  0 -1   0  1 -1   1  0 -1       0  0  1   0 -1  1  -1  0  1
                       1 -1  0   0 -1  1   0 -1  0      -1  1  0   0  1 -1   0  1  0
                       0  0  1   1  0  0   0  1  0       0  0 -1  -1  0  0   0 -1  0
                      -1  1  0  -1  0  0  -1  0  1       1 -1  0   1  0  0   1  0 -1
                       0  0  1   0  1  0   1  0  0       0  0 -1   0 -1  0  -1  0  0
                       1 -1  0   0 -1  0   0 -1  1      -1  1  0   0  1  0   0  1 -1
                       0  0 -1   1  0 -1   0  1 -1       0  0  1  -1  0  1   0 -1  1
                      -1  1  0  -1  0  1  -1  0  0       1 -1  0   1  0 -1   1  0  0
           toldfe      1.00000000E-06 Hartree
            typat      1
              wtk        0.75000    0.25000
            znucl       46.00000

-
-  as well as % of the time and number of calls for node 0-
-<BEGIN_TIMER mpi_nprocs = 1, omp_nthreads = 1, mpi_rank = 0>
- cpu_time =            2.5, wall_time =            3.1
-
-                                                                  (-1=no count)
- fourwf%(pot)                   0.875  35.0      0.947  30.4            870      -1.00        0.92       0.92
- pspini                         0.578  23.1      0.639  20.5              1      -1.00        0.90       0.90
- nonlop(apply)                  0.172   6.9      0.152   4.9            870      -1.00        1.13       1.13
- xc:pot/=fourdp                 0.156   6.2      0.135   4.3              8      -1.00        1.16       1.16
- fourwf%(den)                   0.125   5.0      0.078   2.5            126      -1.00        1.60       1.60
- timing timab                   0.109   4.4      0.116   3.7              9      -1.00        0.94       0.94
- projbd                         0.109   4.4      0.087   2.8           1380      -1.00        1.26       1.26
- fourdp                         0.062   2.5      0.170   5.5            100      -1.00        0.37       0.37
- mkcore                         0.031   1.2      0.031   1.0              3      -1.00        1.01       1.01
- vtowfk(ssdiag)                 0.031   1.2      0.025   0.8             -1      -1.00        1.25       1.25
- stress                         0.016   0.6      0.017   0.5              1      -1.00        0.92       0.92
- abinit(2)                      0.016   0.6      0.188   6.0              1      -1.00        0.08       0.08
- forces                         0.016   0.6      0.018   0.6              1      -1.00        0.87       0.87
- others (100)                   0.047   1.9      0.061   2.0             -1      -1.00        0.77       0.77
-<END_TIMER>
-
- subtotal                       2.344  93.8      2.664  85.6                                  0.88       0.88

- as well as % of the total time and number of calls

-<BEGIN_TIMER mpi_nprocs = 1, omp_nthreads = 1, mpi_rank = world>
- cpu_time =           2.5, wall_time =           3.1
-
-                                                                  (-1=no count)
- fourwf%(pot)                   0.875  35.0      0.947  30.4            870      -1.00        0.92       0.92
- pspini                         0.578  23.1      0.639  20.5              1      -1.00        0.90       0.90
- nonlop(apply)                  0.172   6.9      0.152   4.9            870      -1.00        1.13       1.13
- xc:pot/=fourdp                 0.156   6.2      0.135   4.3              8      -1.00        1.16       1.16
- fourwf%(den)                   0.125   5.0      0.078   2.5            126      -1.00        1.60       1.60
- timing timab                   0.109   4.4      0.116   3.7              9      -1.00        0.94       0.94
- projbd                         0.109   4.4      0.087   2.8           1380      -1.00        1.26       1.26
- fourdp                         0.062   2.5      0.170   5.5            100      -1.00        0.37       0.37
- mkcore                         0.031   1.2      0.031   1.0              3      -1.00        1.01       1.01
- vtowfk(ssdiag)                 0.031   1.2      0.025   0.8             -1      -1.00        1.25       1.25
- stress                         0.016   0.6      0.017   0.5              1      -1.00        0.92       0.92
- abinit(2)                      0.016   0.6      0.188   6.0              1      -1.00        0.08       0.08
- forces                         0.016   0.6      0.018   0.6              1      -1.00        0.87       0.87
- others (100)                   0.047   1.9      0.061   2.0             -1      -1.00        0.77       0.77
-<END_TIMER>

- subtotal                       2.344  93.8      2.664  85.6                                  0.88       0.88

 Suggested references for the acknowledgment of ABINIT usage.

 Calculation completed.
.Delivered   0 WARNINGs and   2 COMMENTs to log file.