.Version 8.6.3 of ABINIT
.(sequential version, prepared for a x86_64_linux_gnu5.4 computer)

 ABINIT is a project of the Universite Catholique de Louvain,
 Corning Inc. and other collaborators, see ~abinit/doc/developers/contributors.txt .
 Please read ~abinit/doc/users/acknowledgments.html for suggested
 acknowledgments of the ABINIT effort.

.Starting date : Sat 21 Apr 2018.
- ( at 09h16 )

- input  file    -> PdBase.in
- output file    -> PdBase.out
- root for input  files -> PdBase_i
- root for output files -> PdBase_o

 Symmetries : space group Fm -3 m (#225); Bravais cF (face-center cubic)
     intxc =       0    ionmov =       0      iscf =       7    lmnmax =       6
     lnmax =       6     mgfft =      15  mpssoang =       3    mqgrid =    3001
     natom =       1  nloc_mem =       1    nspden =       1   nspinor =       1
    nsppol =       1      nsym =      48    n1xccc =    2501    ntypat =       1
    occopt =       1   xclevel =       2
-    mband =          10        mffmem =           1         mkmem =           2
       mpw =         108          nfft =        3375          nkpt =           2
  Rough estimation (10% accuracy) of disk space for files :

------------- Echo of variables that govern the present computation ------------
-
- outvars: echo of selected default values
-   iomode0 =  0 , fftalg0 =112 , wfoptalg0 =  0
-
- outvars: echo of global parameters not present in the input file
-  max_nthreads =    0
-
 -outvars: echo values of preprocessed input variables --------
            acell      7.3500000000E+00  7.3500000000E+00  7.3500000000E+00 Bohr
              amu      1.06420000E+02
           diemac      1.20000000E+01
             ecut      8.00000000E+00 Hartree
-          fftalg         112
           getwfk          -1
              ixc          11
              kpt     -2.50000000E-01  5.00000000E-01  0.00000000E+00
                      -2.50000000E-01  0.00000000E+00  0.00000000E+00
         kptrlatt        2   -2    2     -2    2    2     -2   -2    2
          kptrlen      1.47000000E+01
P           mkmem           2
            natom           1
            nband          10
            ngfft          15      15      15
             nkpt           2
            nstep          10
             nsym          48
           ntypat           1
              occ      2.000000  2.000000  2.000000  2.000000  2.000000  2.000000
                       2.000000  2.000000  2.000000  0.000000
            rprim      0.0000000000E+00  5.0000000000E-01  5.0000000000E-01
                       5.0000000000E-01  0.0000000000E+00  5.0000000000E-01
                       5.0000000000E-01  5.0000000000E-01  0.0000000000E+00
           shiftk      5.00000000E-01  5.00000000E-01  5.00000000E-01
          spgroup         225
           symrel      1  0  0   0  1  0   0  0  1      -1  0  0   0 -1  0   0  0 -1
                       0 -1  1   0 -1  0   1 -1  0       0  1 -1   0  1  0  -1  1  0
                      -1  0  0  -1  0  1  -1  1  0       1  0  0   1  0 -1   1 -1  0
                       0  1 -1   1  0 -1   0  0 -1       0 -1  1  -1  0  1   0  0  1
                      -1  0  0  -1  1  0  -1  0  1       1  0  0   1 -1  0   1  0 -1
                       0 -1  1   1 -1  0   0 -1  0       0  1 -1  -1  1  0   0  1  0
                       1  0  0   0  0  1   0  1  0      -1  0  0   0  0 -1   0 -1  0
                       0  1 -1   0  0 -1   1  0 -1       0 -1  1   0  0  1  -1  0  1
                      -1  0  1  -1  1  0  -1  0  0       1  0 -1   1 -1  0   1  0  0
                       0 -1  0   1 -1  0   0 -1  1       0  1  0  -1  1  0   0  1 -1
                       1  0 -1   0  0 -1   0  1 -1      -1  0  1   0  0  1   0 -1  1
                       0  1  0   0  0  1   1  0  0       0 -1  0   0  0 -1  -1  0  0
                       1  0 -1   0  1 -1   0  0 -1      -1  0  1   0 -1  1   0  0  1
                       0 -1  0   0 -1  1   1 -1  0       0  1  0   0  1 -1  -1  1  0
                      -1  0  1  -1  0  0  -1  1  0       1  0 -1   1  0  0   1 -1  0
                       0  1  0   1  0  0   0  0  1       0 -1  0  -1  0  0   0  0 -1
                       0  0 -1   0  1 -1   1  0 -1       0  0  1   0 -1  1  -1  0  1
                       1 -1  0   0 -1  1   0 -1  0      -1  1  0   0  1 -1   0  1  0
                       0  0  1   1  0  0   0  1  0       0  0 -1  -1  0  0   0 -1  0
                      -1  1  0  -1  0  0  -1  0  1       1 -1  0   1  0  0   1  0 -1
                       0  0  1   0  1  0   1  0  0       0  0 -1   0 -1  0  -1  0  0
                       1 -1  0   0 -1  0   0 -1  1      -1  1  0   0  1  0   0  1 -1
                       0  0 -1   1  0 -1   0  1 -1       0  0  1  -1  0  1   0 -1  1
                      -1  1  0  -1  0  1  -1  0  0       1 -1  0   1  0 -1   1  0  0
           toldfe      1.00000000E-06 Hartree
            typat      1
              wtk        0.75000    0.25000
            znucl       46.00000

 chkinp: Checking input parameters for consistency.

== DATASET  1 ==================================================================
-   nproc =    1

 Real(R)+Recip(G) space primitive vectors, cartesian coordinates (Bohr,Bohr^-1):
 R(1)=  0.0000000  3.6750000  3.6750000  G(1)= -0.1360544  0.1360544  0.1360544
 R(2)=  3.6750000  0.0000000  3.6750000  G(2)=  0.1360544 -0.1360544  0.1360544
 R(3)=  3.6750000  3.6750000  0.0000000  G(3)=  0.1360544  0.1360544 -0.1360544
 Unit cell volume ucvol=  9.9266344E+01 bohr^3
 Angles (23,13,12)=  6.00000000E+01  6.00000000E+01  6.00000000E+01 degrees

 getcut: wavevector=  0.0000  0.0000  0.0000  ngfft=  15  15  15
         ecut(hartree)=      8.000   => boxcut(ratio)=   2.12643

--- Pseudopotential description ------------------------------------------------
- pspini: atom type   1  psp file is ../../../Psps_for_tests/Pd.psp8
- pspatm: opening atomic psp file    ../../../Psps_for_tests/Pd.psp8
- Pd    ONCVPSP-3.2.3.1  r_core=   1.41052   1.46191   1.55175
- 46.00000  18.00000    170510                znucl, zion, pspdat
    8   11    2    4       600   0.00000      pspcod,pspxc,lmax,lloc,mmax,r2well
    5.99000000000000    7.00000000000000    0.00000000000000   rchrg,fchrg,qchrg
     nproj     2     2     2
     extension_switch     1
  pspatm : epsatm=   26.09224486
         --- l  ekb(1:nproj) -->
             0    7.845850   -2.282160
             1    3.261104   -0.686948
             2   -1.134855   -0.401224
 pspatm: atomic psp has been read  and splines computed

   4.69660407E+02                                ecore*ucvol(ha*bohr**3)

_setup2: Arith. and geom. avg. npw (full set) are     107.750     107.749

     iter   Etot(hartree)      deltaE(h)  residm     vres2
 ETOT  1  -129.24407687252    -1.292E+02 2.261E-02 8.007E+02
 ETOT  2  -130.33501862725    -1.091E+00 3.410E-04 1.555E+02
 ETOT  3  -130.56964960576    -2.346E-01 7.975E-03 8.112E-01
 ETOT  4  -130.57036052587    -7.109E-04 1.323E-05 2.682E-02
 ETOT  5  -130.57037674431    -1.622E-05 4.674E-07 8.719E-05
 ETOT  6  -130.57037663548     1.088E-07 4.647E-09 8.264E-07
 ETOT  7  -130.57037658392     5.156E-08 1.674E-10 6.621E-09

 At SCF step    7, etot is converged :
  for the second time, diff in etot=  5.156E-08 < toldfe=  1.000E-06

 Cartesian components of stress tensor (hartree/bohr^3)
  sigma(1 1)=  7.33122892E-02  sigma(3 2)=  0.00000000E+00
  sigma(2 2)=  7.33122892E-02  sigma(3 1)=  0.00000000E+00
  sigma(3 3)=  7.33122892E-02  sigma(2 1)=  0.00000000E+00

 Integrated electronic density in atomic spheres:
 Atom  Sphere_radius  Integrated_density
    1        2.00000         14.91526313

 ----iterations are completed or convergence reached----

 Mean square residual over all n,k,spin=   1.2135E-11; max=  1.6741E-10
 reduced coordinates (array xred) for    1 atoms
       0.000000000000      0.000000000000      0.000000000000
 rms dE/dt=  0.0000E+00; max dE/dt=  0.0000E+00; dE/dt below (all hartree)
    1       0.000000000000      0.000000000000      0.000000000000

 cartesian coordinates (angstrom) at end:
    1      0.00000000000000     0.00000000000000     0.00000000000000

 cartesian forces (hartree/bohr) at end:
    1     -0.00000000000000    -0.00000000000000    -0.00000000000000
 frms,max,avg= 0.0000000E+00 0.0000000E+00   0.000E+00  0.000E+00  0.000E+00 h/b

 cartesian forces (eV/Angstrom) at end:
    1     -0.00000000000000    -0.00000000000000    -0.00000000000000
 frms,max,avg= 0.0000000E+00 0.0000000E+00   0.000E+00  0.000E+00  0.000E+00 e/A
 length scales=  7.350000000000  7.350000000000  7.350000000000 bohr
              =  3.889452483136  3.889452483136  3.889452483136 angstroms
 prteigrs : about to open file PdBase_o_EIG
 Fermi (or HOMO) energy (hartree) =   0.61912   Average Vxc (hartree)=  -0.52524
 Eigenvalues (hartree) for nkpt=   2  k points:
 kpt#   1, nband= 10, wtk=  0.75000, kpt= -0.2500  0.5000  0.0000 (reduced coord)
  -3.13426   -1.75221   -1.74515   -1.73861    0.35668    0.41690    0.48018    0.53431
   0.61912    0.71748
 prteigrs : prtvol=0 or 1, do not print more k-points.

 Components of total free energy (in Hartree) :

    Kinetic energy  =  3.74615233743947E+01
    Hartree energy  =  1.83709534034438E+01
    XC energy       = -1.99679022743518E+01
    Ewald energy    = -1.01054102858018E+02
    PspCore energy  =  4.73131566750373E+00
    Loc. psp. energy= -7.37021882527364E+01
    NL   psp  energy=  3.59002435584551E+00
    >>>>>>>>> Etotal= -1.30570376583919E+02

 Other information on the energy :
    Total energy(eV)= -3.55300063796977E+03 ; Band energy (Ha)=  -1.1944830402E+01

 Cartesian components of stress tensor (hartree/bohr^3)
  sigma(1 1)=  7.33122892E-02  sigma(3 2)=  0.00000000E+00
  sigma(2 2)=  7.33122892E-02  sigma(3 1)=  0.00000000E+00
  sigma(3 3)=  7.33122892E-02  sigma(2 1)=  0.00000000E+00

-Cartesian components of stress tensor (GPa)         [Pressure= -2.1569E+03 GPa]
- sigma(1 1)=  2.15692165E+03  sigma(3 2)=  0.00000000E+00
- sigma(2 2)=  2.15692165E+03  sigma(3 1)=  0.00000000E+00
- sigma(3 3)=  2.15692165E+03  sigma(2 1)=  0.00000000E+00

== END DATASET(S) ==============================================================

 -outvars: echo values of variables after computation  --------
            acell      7.3500000000E+00  7.3500000000E+00  7.3500000000E+00 Bohr
              amu      1.06420000E+02
           diemac      1.20000000E+01
             ecut      8.00000000E+00 Hartree
           etotal     -1.3057037658E+02
            fcart     -0.0000000000E+00 -0.0000000000E+00 -0.0000000000E+00
-          fftalg         112
           getwfk          -1
              ixc          11
              kpt     -2.50000000E-01  5.00000000E-01  0.00000000E+00
                      -2.50000000E-01  0.00000000E+00  0.00000000E+00
         kptrlatt        2   -2    2     -2    2    2     -2   -2    2
          kptrlen      1.47000000E+01
P           mkmem           2
            natom           1
            nband          10
            ngfft          15      15      15
             nkpt           2
            nstep          10
             nsym          48
           ntypat           1
              occ      2.000000  2.000000  2.000000  2.000000  2.000000  2.000000
                       2.000000  2.000000  2.000000  0.000000
            rprim      0.0000000000E+00  5.0000000000E-01  5.0000000000E-01
                       5.0000000000E-01  0.0000000000E+00  5.0000000000E-01
                       5.0000000000E-01  5.0000000000E-01  0.0000000000E+00
           shiftk      5.00000000E-01  5.00000000E-01  5.00000000E-01
          spgroup         225
           strten      7.3312289233E-02  7.3312289233E-02  7.3312289233E-02
                       0.0000000000E+00  0.0000000000E+00  0.0000000000E+00
           symrel      1  0  0   0  1  0   0  0  1      -1  0  0   0 -1  0   0  0 -1
                       0 -1  1   0 -1  0   1 -1  0       0  1 -1   0  1  0  -1  1  0
                      -1  0  0  -1  0  1  -1  1  0       1  0  0   1  0 -1   1 -1  0
                       0  1 -1   1  0 -1   0  0 -1       0 -1  1  -1  0  1   0  0  1
                      -1  0  0  -1  1  0  -1  0  1       1  0  0   1 -1  0   1  0 -1
                       0 -1  1   1 -1  0   0 -1  0       0  1 -1  -1  1  0   0  1  0
                       1  0  0   0  0  1   0  1  0      -1  0  0   0  0 -1   0 -1  0
                       0  1 -1   0  0 -1   1  0 -1       0 -1  1   0  0  1  -1  0  1
                      -1  0  1  -1  1  0  -1  0  0       1  0 -1   1 -1  0   1  0  0
                       0 -1  0   1 -1  0   0 -1  1       0  1  0  -1  1  0   0  1 -1
                       1  0 -1   0  0 -1   0  1 -1      -1  0  1   0  0  1   0 -1  1
                       0  1  0   0  0  1   1  0  0       0 -1  0   0  0 -1  -1  0  0
                       1  0 -1   0  1 -1   0  0 -1      -1  0  1   0 -1  1   0  0  1
                       0 -1  0   0 -1  1   1 -1  0       0  1  0   0  1 -1  -1  1  0
                      -1  0  1  -1  0  0  -1  1  0       1  0 -1   1  0  0   1 -1  0
                       0  1  0   1  0  0   0  0  1       0 -1  0  -1  0  0   0  0 -1
                       0  0 -1   0  1 -1   1  0 -1       0  0  1   0 -1  1  -1  0  1
                       1 -1  0   0 -1  1   0 -1  0      -1  1  0   0  1 -1   0  1  0
                       0  0  1   1  0  0   0  1  0       0  0 -1  -1  0  0   0 -1  0
                      -1  1  0  -1  0  0  -1  0  1       1 -1  0   1  0  0   1  0 -1
                       0  0  1   0  1  0   1  0  0       0  0 -1   0 -1  0  -1  0  0
                       1 -1  0   0 -1  0   0 -1  1      -1  1  0   0  1  0   0  1 -1
                       0  0 -1   1  0 -1   0  1 -1       0  0  1  -1  0  1   0 -1  1
                      -1  1  0  -1  0  1  -1  0  0       1 -1  0   1  0 -1   1  0  0
           toldfe      1.00000000E-06 Hartree
            typat      1
              wtk        0.75000    0.25000
            znucl       46.00000

-
-  as well as % of the time and number of calls for node 0-
-<BEGIN_TIMER mpi_nprocs = 1, omp_nthreads = 1, mpi_rank = 0>
- cpu_time =            0.8, wall_time =            1.1
-
-                                                                  (-1=no count)
- pspini                         0.359  46.0      0.372  34.1              1      -1.00        0.97       0.97
- timing timab                   0.125  16.0      0.117  10.7              9      -1.00        1.07       1.07
- fourwf%(pot)                   0.078  10.0      0.055   5.0            829      -1.00        1.42       1.42
- projbd                         0.031   4.0      0.013   1.2           1298      -1.00        2.40       2.40
- fourdp                         0.016   2.0      0.007   0.6            100      -1.00        2.23       2.23
- xc:pot/=fourdp                 0.016   2.0      0.010   0.9              8      -1.00        1.56       1.56
- vtowfk  (1)                    0.016   2.0      0.008   0.7             14      -1.00        1.95       1.95
- abinit(2)                      0.016   2.0      0.035   3.2              1      -1.00        0.45       0.45
- nonlop(apply)                  0.016   2.0      0.022   2.0            829      -1.00        0.71       0.71
- invars2                        0.016   2.0      0.020   1.8              1      -1.00        0.78       0.78
- vtowfk(ssdiag)                 0.016   2.0      0.051   4.7             -1      -1.00        0.31       0.31
- vtowfk(contrib)                0.016   2.0      0.028   2.6             14      -1.00        0.56       0.56
- others (101)                   0.000   0.0      0.035   3.2             -1      -1.00        0.00       0.00
-<END_TIMER>
-
- subtotal                       0.719  92.0      0.773  70.9                                  0.93       0.93

- as well as % of the total time and number of calls

-<BEGIN_TIMER mpi_nprocs = 1, omp_nthreads = 1, mpi_rank = world>
- cpu_time =           0.8, wall_time =           1.1
-
-                                                                  (-1=no count)
- pspini                         0.359  46.0      0.372  34.1              1      -1.00        0.97       0.97
- timing timab                   0.125  16.0      0.117  10.7              9      -1.00        1.07       1.07
- fourwf%(pot)                   0.078  10.0      0.055   5.0            829      -1.00        1.42       1.42
- projbd                         0.031   4.0      0.013   1.2           1298      -1.00        2.40       2.40
- fourdp                         0.016   2.0      0.007   0.6            100      -1.00        2.23       2.23
- xc:pot/=fourdp                 0.016   2.0      0.010   0.9              8      -1.00        1.56       1.56
- vtowfk  (1)                    0.016   2.0      0.008   0.7             14      -1.00        1.95       1.95
- abinit(2)                      0.016   2.0      0.035   3.2              1      -1.00        0.45       0.45
- nonlop(apply)                  0.016   2.0      0.022   2.0            829      -1.00        0.71       0.71
- invars2                        0.016   2.0      0.020   1.8              1      -1.00        0.78       0.78
- vtowfk(ssdiag)                 0.016   2.0      0.051   4.7             -1      -1.00        0.31       0.31
- vtowfk(contrib)                0.016   2.0      0.028   2.6             14      -1.00        0.56       0.56
- others (101)                   0.000   0.0      0.035   3.2             -1      -1.00        0.00       0.00
-<END_TIMER>

- subtotal                       0.719  92.0      0.773  70.9                                  0.93       0.93

 Suggested references for the acknowledgment of ABINIT usage.

 Calculation completed.
.Delivered   0 WARNINGs and   0 COMMENTs to log file.