.Version 8.6.3 of ABINIT
.(sequential version, prepared for a x86_64_linux_gnu5.4 computer)

 ABINIT is a project of the Universite Catholique de Louvain,
 Corning Inc. and other collaborators, see ~abinit/doc/developers/contributors.txt .
 Please read ~abinit/doc/users/acknowledgments.html for suggested
 acknowledgments of the ABINIT effort.

.Starting date : Sun 22 Apr 2018.
- ( at 17h22 )

- input  file    -> DOSwithoutGeom1LayerBigUnit.in
- output file    -> DOSwithoutGeom1LayerBigUnit.out
- root for input  files -> DOSwithoutGeom1LayerBigUnit_i
- root for output files -> DOSwithoutGeom1LayerBigUnit_o

 Symmetries : space group P1 (#  1); Bravais aP (primitive triclinic)
     intxc =       0    ionmov =       0      iscf =       7    lmnmax =       6
     lnmax =       6     mgfft =     576  mpssoang =       3    mqgrid =   27896
     natom =      10  nloc_mem =       1    nspden =       1   nspinor =       1
    nsppol =       1      nsym =       1    n1xccc =    2501    ntypat =       3
    occopt =       1   xclevel =       2
-    mband =          62        mffmem =           1         mkmem =           2
       mpw =      133996          nfft =     2359296          nkpt =           2
  Rough estimation (10% accuracy) of disk space for files :

------------- Echo of variables that govern the present computation ------------
-
- outvars: echo of selected default values
-   iomode0 =  0 , fftalg0 =112 , wfoptalg0 =  0
-
- outvars: echo of global parameters not present in the input file
-  max_nthreads =    0
-
 -outvars: echo values of preprocessed input variables --------
            acell      8.6808000000E+00  8.6808000000E+00  8.0000000000E+01 Bohr
              amu      4.78800000E+01  1.59994000E+01  1.06420000E+02
           diemac      1.20000000E+01
             ecut      6.00000000E+01 Hartree
-          fftalg         112
              ixc          11
              kpt      1.25000000E-01  5.00000000E-01  5.00000000E-01
                       3.75000000E-01  5.00000000E-01  5.00000000E-01
           kptopt           2
         kptrlatt        4    0    0      0    1    0      0    0    1
          kptrlen      8.68080000E+00
P           mkmem           2
            natom          10
            nband          62
            ngfft          64      64     576
             nkpt           2
            nstep          10
             nsym           1
           ntypat           3
              occ      2.000000  2.000000  2.000000  2.000000  2.000000  2.000000
                       2.000000  2.000000  2.000000  2.000000  2.000000  2.000000
                       2.000000  2.000000  2.000000  2.000000  2.000000  2.000000
                       2.000000  2.000000  2.000000  2.000000  2.000000  2.000000
                       2.000000  2.000000  2.000000  2.000000  2.000000  2.000000
                       2.000000  2.000000  2.000000  2.000000  2.000000  2.000000
                       2.000000  2.000000  2.000000  2.000000  2.000000  2.000000
                       2.000000  2.000000  2.000000  2.000000  2.000000  2.000000
                       2.000000  2.000000  2.000000  2.000000  2.000000  2.000000
                       2.000000  2.000000  2.000000  2.000000  2.000000  2.000000
                       0.000000  0.000000
           prtdos           2
           shiftk      5.00000000E-01  5.00000000E-01  5.00000000E-01
          spgroup           1
           toldfe      1.00000000E-02 Hartree
            typat      1  1  2  2  2  2  3  3  3  3
              wtk        0.50000    0.50000
           xangst      0.0000000000E+00  0.0000000000E+00  0.0000000000E+00
                       2.2968407562E+00  1.4793678043E+00  2.2968407562E+00
                       3.9876836484E+01  0.0000000000E+00  1.4240158683E+00
                       3.1696656440E+00  0.0000000000E+00  3.1696656440E+00
                       8.7282488785E-01  1.4793678043E+00  3.7208566245E+00
                       3.7208566245E+00  1.4793678043E+00  8.7282488785E-01
                       8.7282488785E-01  0.0000000000E+00  7.5041561596E+00
                       1.9453612542E+00  1.3755961537E+00  8.8797523133E+00
                       1.9453612542E+00 -1.3755961537E+00  8.8797523133E+00
                       0.0000000000E+00  0.0000000000E+00  1.0255295549E+01
            xcart      0.0000000000E+00  0.0000000000E+00  0.0000000000E+00
                       4.3404000000E+00  2.7956000000E+00  4.3404000000E+00
                       7.5356300000E+01  0.0000000000E+00  2.6910000000E+00
                       5.9898000000E+00  0.0000000000E+00  5.9898000000E+00
                       1.6494000000E+00  2.7956000000E+00  7.0314000000E+00
                       7.0314000000E+00  2.7956000000E+00  1.6494000000E+00
                       1.6494000000E+00  0.0000000000E+00  1.4180800000E+01
                       3.6762000000E+00  2.5995000000E+00  1.6780300000E+01
                       3.6762000000E+00 -2.5995000000E+00  1.6780300000E+01
                       0.0000000000E+00  0.0000000000E+00  1.9379700000E+01
             xred      0.0000000000E+00  0.0000000000E+00  0.0000000000E+00
                       5.0000000000E-01  3.2204405124E-01  5.4255000000E-02
                       8.6808013086E+00  0.0000000000E+00  3.3637500000E-02
                       6.9000552944E-01  0.0000000000E+00  7.4872500000E-02
                       1.9000552944E-01  3.2204405124E-01  8.7892500000E-02
                       8.0999447056E-01  3.2204405124E-01  2.0617500000E-02
                       1.9000552944E-01  0.0000000000E+00  1.7726000000E-01
                       4.2348631463E-01  2.9945396738E-01  2.0975375000E-01
                       4.2348631463E-01 -2.9945396738E-01  2.0975375000E-01
                       0.0000000000E+00  0.0000000000E+00  2.4224625000E-01
            znucl       22.00000    8.00000   46.00000

 chkinp: Checking input parameters for consistency.

== DATASET  1 ==================================================================
-   nproc =    1

 Real(R)+Recip(G) space primitive vectors, cartesian coordinates (Bohr,Bohr^-1):
 R(1)=  8.6808000  0.0000000  0.0000000  G(1)=  0.1151968  0.0000000  0.0000000
 R(2)=  0.0000000  8.6808000  0.0000000  G(2)=  0.0000000  0.1151968  0.0000000
 R(3)=  0.0000000  0.0000000 80.0000000  G(3)=  0.0000000  0.0000000  0.0125000
 Unit cell volume ucvol=  6.0285031E+03 bohr^3
 Angles (23,13,12)=  9.00000000E+01  9.00000000E+01  9.00000000E+01 degrees

 getcut: wavevector=  0.0000  0.0000  0.0000  ngfft=  64  64 576
         ecut(hartree)=     60.000   => boxcut(ratio)=   2.06487

--- Pseudopotential description ------------------------------------------------
- pspini: atom type   1  psp file is ../../../Psps_for_tests/Ti.psp8
- pspatm: opening atomic psp file    ../../../Psps_for_tests/Ti.psp8
- Ti    ONCVPSP-3.2.3.1  r_core=   1.35825   1.31050   1.66360
- 22.00000  12.00000    170504                znucl, zion, pspdat
    8   11    2    4       600   0.00000      pspcod,pspxc,lmax,lloc,mmax,r2well
    5.99000000000000    2.50000000000000    0.00000000000000   rchrg,fchrg,qchrg
     nproj     2     2     2
     extension_switch     1
  pspatm : epsatm=   14.68144390
         --- l  ekb(1:nproj) -->
             0   11.362348    1.263639
             1    1.975402   -0.084666
             2   -5.186090   -1.477451
 pspatm: atomic psp has been read  and splines computed

- pspini: atom type   2  psp file is ../../../Psps_for_tests/O.psp8
- pspatm: opening atomic psp file    ../../../Psps_for_tests/O.psp8
- O     ONCVPSP-3.2.3.1  r_core=   1.35509   1.45563   1.26150
-  8.00000   6.00000    170504                znucl, zion, pspdat
    8   11    2    4       600   0.00000      pspcod,pspxc,lmax,lloc,mmax,r2well
    5.99000000000000    4.00000000000000    0.00000000000000   rchrg,fchrg,qchrg
     nproj     2     2     1
     extension_switch     1
  pspatm : epsatm=    6.19546011
         --- l  ekb(1:nproj) -->
             0    6.056735    0.824024
             1   -4.717130   -1.149271
             2   -1.331955
 pspatm: atomic psp has been read  and splines computed

- pspini: atom type   3  psp file is ../../../Psps_for_tests/Pd.psp8
- pspatm: opening atomic psp file    ../../../Psps_for_tests/Pd.psp8
- Pd    ONCVPSP-3.2.3.1  r_core=   1.41052   1.46191   1.55175
- 46.00000  18.00000    170510                znucl, zion, pspdat
    8   11    2    4       600   0.00000      pspcod,pspxc,lmax,lloc,mmax,r2well
    5.99000000000000    7.00000000000000    0.00000000000000   rchrg,fchrg,qchrg
     nproj     2     2     2
     extension_switch     1
  pspatm : epsatm=   26.09224486
         --- l  ekb(1:nproj) -->
             0    7.845850   -2.282160
             1    3.261104   -0.686948
             2   -1.134855   -0.401224
 pspatm: atomic psp has been read  and splines computed

   1.90216449E+04                                ecore*ucvol(ha*bohr**3)

_setup2: Arith. and geom. avg. npw (full set) are  133872.000  133871.943

     iter   Etot(hartree)      deltaE(h)  residm     vres2
 ETOT  1  -549.92607413455    -5.499E+02 2.359E-01 1.491E+08
 ETOT  2   528.76805391880     1.079E+03 8.597E-01 1.181E+09
 ETOT  3  -475.95225728604    -1.005E+03 9.029E-01 2.107E+08
 ETOT  4  -711.26843342044    -2.353E+02 9.211E-01 1.499E+06
 ETOT  5  -697.13037901003     1.414E+01 1.153E-01 1.813E+07
 ETOT  6  -686.09818660810     1.103E+01 6.807E-02 3.036E+07
 ETOT  7  -706.90972809000    -2.081E+01 2.065E-02 1.471E+07
 ETOT  8  -720.62242992738    -1.371E+01 9.422E-03 2.642E+06
 ETOT  9  -723.47751837678    -2.855E+00 3.561E-02 1.595E+06
 ETOT 10  -717.81341529437     5.664E+00 5.512E-02 6.043E+06

 Cartesian components of stress tensor (hartree/bohr^3)
  sigma(1 1)=  1.02239247E-04  sigma(3 2)= -5.77060756E-05
  sigma(2 2)= -1.16328466E-05  sigma(3 1)=  1.69954391E-04
  sigma(3 3)=  1.63549469E-03  sigma(2 1)=  1.38890860E-05

 scprqt:  WARNING -
  nstep=   10 was not enough SCF cycles to converge;
  maximum energy difference=  5.664E+00 exceeds toldfe=  1.000E-02

 Integrated electronic density in atomic spheres:
 Atom  Sphere_radius  Integrated_density
    1        2.00000          8.09287259
    2        2.00000          9.41904989
    3        2.00000          6.20617155
    4        2.00000          6.34935370
    5        2.00000          4.84025674
    6        2.00000          5.36046615
    7        2.00000         15.55169631
    8        2.00000         16.27537114
    9        2.00000         16.44726531
   10        2.00000         14.10699223

 ----iterations are completed or convergence reached----

 Mean square residual over all n,k,spin=   6.6354E-03; max=  5.5121E-02
 reduced coordinates (array xred) for   10 atoms
       0.000000000000      0.000000000000      0.000000000000
       0.500000000000      0.322044051240      0.054255000000
       8.680801308635      0.000000000000      0.033637500000
       0.690005529444      0.000000000000      0.074872500000
       0.190005529444      0.322044051240      0.087892500000
       0.809994470556      0.322044051240      0.020617500000
       0.190005529444      0.000000000000      0.177260000000
       0.423486314625      0.299453967376      0.209753750000
       0.423486314625     -0.299453967376      0.209753750000
       0.000000000000      0.000000000000      0.242246250000
 rms dE/dt=  3.7374E+01; max dE/dt=  1.5412E+02; dE/dt below (all hartree)
    1      -0.771856681859     -0.347039270483     36.372174640048
    2      -0.563000026595     -0.573449556197    154.116168616415
    3       2.158421500687      2.166546483909    -73.711703433960
    4       0.066276891397      0.635070696318    -46.161120066181
    5      -1.500594331056     -0.042271764830    -38.925155867281
    6       0.952996249029     -2.100991917171    -71.609438825495
    7       1.214498432487     -0.409960252434    -34.161332973616
    8       0.049387746080      3.502990286423      8.329211974032
    9      -0.065784714384     -2.982850288311     -1.356569173616
   10      -2.237339323902     -0.074443489393     36.586144099176

 cartesian coordinates (angstrom) at end:
    1      0.00000000000000     0.00000000000000     0.00000000000000
    2      2.29684075616404     1.47936780433420     2.29684075616404
    3     39.87683648367062     0.00000000000000     1.42401586831569
    4      3.16966564401238     0.00000000000000     3.16966564401238
    5      0.87282488784835     1.47936780433420     3.72085662447972
    6      3.72085662447973     1.47936780433420     0.87282488784835
    7      0.87282488784835     0.00000000000000     7.50415615957307
    8      1.94536125421856     1.37559615372970     8.87975231330278
    9      1.94536125421856    -1.37559615372970     8.87975231330278
   10      0.00000000000000     0.00000000000000    10.25529554931162

 cartesian forces (hartree/bohr) at end:
    1      0.08088623814017     0.03736975431602    -0.49280420926369
    2      0.05682662897233     0.06345148476869    -1.96460413396828
    3     -0.25667230284060    -0.25218717066697     0.88324426666140
    4     -0.01566403064338    -0.07576612795303     0.53886197456417
    5      0.16483445134603     0.00226152631242     0.44841242207792
    6     -0.11781122417756     0.23941940949617     0.85696595905559
    7     -0.14793542741431     0.04461804732476     0.38886463590710
    8     -0.01371845589024    -0.40614116137224    -0.14226717593850
    9     -0.00045096205733     0.34100663315523    -0.02119491159290
   10      0.24970508456489     0.00596760461896    -0.49547882750280
 frms,max,avg= 4.8794163E-01 1.9646041E+00   8.029E-03  2.608E-03  3.815E-02 h/b

 cartesian forces (eV/Angstrom) at end:
    1      4.15933724902520     1.92162986791608   -25.34100919015197
    2      2.92214250601606     3.26280625941598  -101.02399792462251
    3    -13.19861937636319   -12.96798462630544    45.41824249443259
    4     -0.80547677358868    -3.89605061943084    27.70939450792563
    5      8.47612757337146     0.11629234894800    23.05829190426913
    6     -6.05809621441175    12.31144000455708    44.06695770014168
    7     -7.60714489686732     2.29435204904764    19.99622188083629
    8     -0.70543130568784   -20.88461646504702    -7.31567171128879
    9     -0.02318939940946    17.53526463907592    -1.08988608328371
   10     12.84035063791552     0.30686654182262   -25.47854357825836
 frms,max,avg= 2.5090965E+01 1.0102400E+02   4.129E-01  1.341E-01  1.962E+00 e/A
 length scales=  8.680800000000  8.680800000000 80.000000000000 bohr
              =  4.593681512328  4.593681512328 42.334176687200 angstroms
 prteigrs : about to open file DOSwithoutGeom1LayerBigUnit_o_EIG
 Fermi (or HOMO) energy (hartree) =  -0.23961   Average Vxc (hartree)=  -0.10323
 Eigenvalues (hartree) for nkpt=   2  k points:
 kpt#   1, nband= 62, wtk=  0.50000, kpt=  0.1250  0.5000  0.5000 (reduced coord)
  -3.62399   -3.57732   -3.45990   -3.26223   -2.43851   -2.35620   -2.35111   -2.32291
  -2.31547   -2.31083   -2.30000   -2.22175   -2.20414   -2.19888   -2.15040   -2.04046
  -2.02688   -2.02517   -1.46070   -1.45788   -1.44079   -1.31472   -1.30538   -1.27785
  -1.00744   -0.90000   -0.81171   -0.74874   -0.71444   -0.69664   -0.69466   -0.61857
  -0.61717   -0.59099   -0.58383   -0.57616   -0.54333   -0.53004   -0.51951   -0.51377
  -0.49195   -0.46524   -0.45993   -0.45694   -0.45564   -0.44266   -0.42252   -0.39547
  -0.39369   -0.36736   -0.36220   -0.35758   -0.35150   -0.35101   -0.32733   -0.31851
  -0.27039   -0.26315   -0.25147   -0.24241   -0.23513   -0.20133
 prteigrs : prtvol=0 or 1, do not print more k-points.

 Components of total free energy (in Hartree) :

    Kinetic energy  =  2.61730659923734E+02
    Hartree energy  =  4.40016432713409E+03
    XC energy       = -1.16669745182665E+02
    Ewald energy    =  3.68550809462460E+03
    PspCore energy  =  3.15528492449248E+00
    Loc. psp. energy= -8.95077610331198E+03
    NL   psp  energy= -9.25933406641307E-01
    >>>>>>>>> Etotal= -7.17813415294366E+02

 Other information on the energy :
    Total energy(eV)= -1.95326963834326E+04 ; Band energy (Ha)=  -1.4315314316E+02

 Cartesian components of stress tensor (hartree/bohr^3)
  sigma(1 1)=  1.02239247E-04  sigma(3 2)= -5.77060756E-05
  sigma(2 2)= -1.16328466E-05  sigma(3 1)=  1.69954391E-04
  sigma(3 3)=  1.63549469E-03  sigma(2 1)=  1.38890860E-05

-Cartesian components of stress tensor (GPa)         [Pressure= -1.6928E+01 GPa]
- sigma(1 1)=  3.00798198E+00  sigma(3 2)= -1.69777107E+00
- sigma(2 2)= -3.42250106E-01  sigma(3 1)=  5.00022998E+00
- sigma(3 3)=  4.81179069E+01  sigma(2 1)=  4.08630950E-01

== END DATASET(S) ==============================================================

 -outvars: echo values of variables after computation  --------
            acell      8.6808000000E+00  8.6808000000E+00  8.0000000000E+01 Bohr
              amu      4.78800000E+01  1.59994000E+01  1.06420000E+02
           diemac      1.20000000E+01
             ecut      6.00000000E+01 Hartree
           etotal     -7.1781341529E+02
            fcart      8.0886238140E-02  3.7369754316E-02 -4.9280420926E-01
                       5.6826628972E-02  6.3451484769E-02 -1.9646041340E+00
                      -2.5667230284E-01 -2.5218717067E-01  8.8324426666E-01
                      -1.5664030643E-02 -7.5766127953E-02  5.3886197456E-01
                       1.6483445135E-01  2.2615263124E-03  4.4841242208E-01
                      -1.1781122418E-01  2.3941940950E-01  8.5696595906E-01
                      -1.4793542741E-01  4.4618047325E-02  3.8886463591E-01
                      -1.3718455890E-02 -4.0614116137E-01 -1.4226717594E-01
                      -4.5096205733E-04  3.4100663316E-01 -2.1194911593E-02
                       2.4970508456E-01  5.9676046190E-03 -4.9547882750E-01
-          fftalg         112
              ixc          11
              kpt      1.25000000E-01  5.00000000E-01  5.00000000E-01
                       3.75000000E-01  5.00000000E-01  5.00000000E-01
           kptopt           2
         kptrlatt        4    0    0      0    1    0      0    0    1
          kptrlen      8.68080000E+00
P           mkmem           2
            natom          10
            nband          62
            ngfft          64      64     576
             nkpt           2
            nstep          10
             nsym           1
           ntypat           3
              occ      2.000000  2.000000  2.000000  2.000000  2.000000  2.000000
                       2.000000  2.000000  2.000000  2.000000  2.000000  2.000000
                       2.000000  2.000000  2.000000  2.000000  2.000000  2.000000
                       2.000000  2.000000  2.000000  2.000000  2.000000  2.000000
                       2.000000  2.000000  2.000000  2.000000  2.000000  2.000000
                       2.000000  2.000000  2.000000  2.000000  2.000000  2.000000
                       2.000000  2.000000  2.000000  2.000000  2.000000  2.000000
                       2.000000  2.000000  2.000000  2.000000  2.000000  2.000000
                       2.000000  2.000000  2.000000  2.000000  2.000000  2.000000
                       2.000000  2.000000  2.000000  2.000000  2.000000  2.000000
                       0.000000  0.000000
           prtdos           2
           shiftk      5.00000000E-01  5.00000000E-01  5.00000000E-01
          spgroup           1
           strten      1.0223924668E-04 -1.1632846634E-05  1.6354946898E-03
                      -5.7706075619E-05  1.6995439129E-04  1.3889086028E-05
           toldfe      1.00000000E-02 Hartree
            typat      1  1  2  2  2  2  3  3  3  3
              wtk        0.50000    0.50000
           xangst      0.0000000000E+00  0.0000000000E+00  0.0000000000E+00
                       2.2968407562E+00  1.4793678043E+00  2.2968407562E+00
                       3.9876836484E+01  0.0000000000E+00  1.4240158683E+00
                       3.1696656440E+00  0.0000000000E+00  3.1696656440E+00
                       8.7282488785E-01  1.4793678043E+00  3.7208566245E+00
                       3.7208566245E+00  1.4793678043E+00  8.7282488785E-01
                       8.7282488785E-01  0.0000000000E+00  7.5041561596E+00
                       1.9453612542E+00  1.3755961537E+00  8.8797523133E+00
                       1.9453612542E+00 -1.3755961537E+00  8.8797523133E+00
                       0.0000000000E+00  0.0000000000E+00  1.0255295549E+01
            xcart      0.0000000000E+00  0.0000000000E+00  0.0000000000E+00
                       4.3404000000E+00  2.7956000000E+00  4.3404000000E+00
                       7.5356300000E+01  0.0000000000E+00  2.6910000000E+00
                       5.9898000000E+00  0.0000000000E+00  5.9898000000E+00
                       1.6494000000E+00  2.7956000000E+00  7.0314000000E+00
                       7.0314000000E+00  2.7956000000E+00  1.6494000000E+00
                       1.6494000000E+00  0.0000000000E+00  1.4180800000E+01
                       3.6762000000E+00  2.5995000000E+00  1.6780300000E+01
                       3.6762000000E+00 -2.5995000000E+00  1.6780300000E+01
                       0.0000000000E+00  0.0000000000E+00  1.9379700000E+01
             xred      0.0000000000E+00  0.0000000000E+00  0.0000000000E+00
                       5.0000000000E-01  3.2204405124E-01  5.4255000000E-02
                       8.6808013086E+00  0.0000000000E+00  3.3637500000E-02
                       6.9000552944E-01  0.0000000000E+00  7.4872500000E-02
                       1.9000552944E-01  3.2204405124E-01  8.7892500000E-02
                       8.0999447056E-01  3.2204405124E-01  2.0617500000E-02
                       1.9000552944E-01  0.0000000000E+00  1.7726000000E-01
                       4.2348631463E-01  2.9945396738E-01  2.0975375000E-01
                       4.2348631463E-01 -2.9945396738E-01  2.0975375000E-01
                       0.0000000000E+00  0.0000000000E+00  2.4224625000E-01
            znucl       22.00000    8.00000   46.00000

-
-  as well as % of the time and number of calls for node 0-
-<BEGIN_TIMER mpi_nprocs = 1, omp_nthreads = 1, mpi_rank = 0>
- cpu_time =         1675.0, wall_time =         1690.2
-
-                                                                  (-1=no count)
- projbd                       538.078  32.1    544.084  32.2          11822      -1.00        0.99       0.99
- fourwf%(pot)                 442.219  26.4    444.622  26.3           7399      -1.00        0.99       0.99
- nonlop(apply)                384.984  23.0    387.731  22.9           7399      -1.00        0.99       0.99
- vtowfk(ssdiag)                89.016   5.3     90.032   5.3             -1      -1.00        0.99       0.99
- fourwf%(den)                  42.312   2.5     43.089   2.5           1200      -1.00        0.98       0.98
- nonlop(forstr)                17.297   1.0     17.346   1.0            120      -1.00        1.00       1.00
- pspini                        15.312   0.9     15.355   0.9              1      -1.00        1.00       1.00
- xc:pot/=fourdp                 9.328   0.6      9.422   0.6             11      -1.00        0.99       0.99
- fourdp                         9.312   0.6      9.437   0.6            131      -1.00        0.99       0.99
- others (104)                  15.547   0.9     15.264   0.9             -1      -1.00        1.02       1.02
-<END_TIMER>
-
- subtotal                    1563.406  93.3   1576.382  93.3                                  0.99       0.99

- as well as % of the total time and number of calls

-<BEGIN_TIMER mpi_nprocs = 1, omp_nthreads = 1, mpi_rank = world>
- cpu_time =        1675.0, wall_time =        1690.2
-
-                                                                  (-1=no count)
- projbd                       538.078  32.1    544.084  32.2          11822      -1.00        0.99       0.99
- fourwf%(pot)                 442.219  26.4    444.622  26.3           7399      -1.00        0.99       0.99
- nonlop(apply)                384.984  23.0    387.731  22.9           7399      -1.00        0.99       0.99
- vtowfk(ssdiag)                89.016   5.3     90.032   5.3             -1      -1.00        0.99       0.99
- fourwf%(den)                  42.312   2.5     43.089   2.5           1200      -1.00        0.98       0.98
- nonlop(forstr)                17.297   1.0     17.346   1.0            120      -1.00        1.00       1.00
- pspini                        15.312   0.9     15.355   0.9              1      -1.00        1.00       1.00
- xc:pot/=fourdp                 9.328   0.6      9.422   0.6             11      -1.00        0.99       0.99
- fourdp                         9.312   0.6      9.437   0.6            131      -1.00        0.99       0.99
- others (104)                  15.547   0.9     15.264   0.9             -1      -1.00        1.02       1.02
-<END_TIMER>

- subtotal                    1563.406  93.3   1576.382  93.3                                  0.99       0.99

 Suggested references for the acknowledgment of ABINIT usage.

 Calculation completed.
.Delivered   5 WARNINGs and   2 COMMENTs to log file.