.Version 8.6.3 of ABINIT
.(sequential version, prepared for a x86_64_linux_gnu5.4 computer)

 ABINIT is a project of the Universite Catholique de Louvain,
 Corning Inc. and other collaborators, see ~abinit/doc/developers/contributors.txt .
 Please read ~abinit/doc/users/acknowledgments.html for suggested
 acknowledgments of the ABINIT effort.

.Starting date : Thu 26 Apr 2018.
- ( at 14h06 )

- input  file    -> manualGeomOpt2.in
- output file    -> mamualGeomOpt2.out
- root for input  files -> manualGeomOpt2_i
- root for output files -> manualGeomOpt2_o

 DATASET    1 : space group P1 (#  1); Bravais aP (primitive triclinic)
     intxc =       0    ionmov =       0      iscf =       7    lmnmax =       6
     lnmax =       6     mgfft =     180  mpssoang =       3    mqgrid =    8718
     natom =      10  nloc_mem =       1    nspden =       1   nspinor =       1
    nsppol =       1      nsym =       1    n1xccc =    2501    ntypat =       3
    occopt =       1   xclevel =       2
-    mband =          62        mffmem =           1         mkmem =           2
       mpw =       41884          nfft =      737280          nkpt =           2
  Rough estimation (10% accuracy) of disk space for files :

[...]

 DATASET    5 : space group P1 (#  1); Bravais aP (primitive triclinic)
     intxc =       0    ionmov =       0      iscf =       7    lmnmax =       6
     lnmax =       6     mgfft =     180  mpssoang =       3    mqgrid =    8981
     natom =      10  nloc_mem =       1    nspden =       1   nspinor =       1
    nsppol =       1      nsym =       1    n1xccc =    2501    ntypat =       3
    occopt =       1   xclevel =       2
-    mband =          62        mffmem =           1         mkmem =           2
       mpw =       43156          nfft =      737280          nkpt =           2
  Rough estimation (10% accuracy) of disk space for files :

------------- Echo of variables that govern the present computation ------------
-
- outvars: echo of selected default values
-   iomode0 =  0 , fftalg0 =112 , wfoptalg0 =  0
-
- outvars: echo of global parameters not present in the input file
-  max_nthreads =    0
-
 -outvars: echo values of preprocessed input variables --------
            acell1     8.6808000000E+00  8.6808000000E+00  2.5000000000E+01 Bohr
            acell2     8.6808000000E+00  8.6808000000E+00  2.5189000000E+01 Bohr
            acell3     8.6808000000E+00  8.6808000000E+00  2.5378000000E+01 Bohr
            acell4     8.6808000000E+00  8.6808000000E+00  2.5567000000E+01 Bohr
            acell5     8.6808000000E+00  8.6808000000E+00  2.5756000000E+01 Bohr
              amu      4.78800000E+01  1.59994000E+01  1.06420000E+02
           diemac      1.20000000E+01
             ecut      6.00000000E+01 Hartree
-          fftalg         112
              ixc          11
           jdtset        1    2    3    4    5
              kpt      1.25000000E-01  5.00000000E-01  5.00000000E-01
                       3.75000000E-01  5.00000000E-01  5.00000000E-01
           kptopt           2
         kptrlatt        4    0    0      0    1    0      0    0    1
          kptrlen      8.68080000E+00
P           mkmem           2
            natom          10
            nband          62
           ndtset           5
            ngfft          64      64     180
             nkpt           2
            nstep          40
             nsym           1
           ntypat           3
              occ      2.000000  2.000000  2.000000  2.000000  2.000000  2.000000
                       2.000000  2.000000  2.000000  2.000000  2.000000  2.000000
                       2.000000  2.000000  2.000000  2.000000  2.000000  2.000000
                       2.000000  2.000000  2.000000  2.000000  2.000000  2.000000
                       2.000000  2.000000  2.000000  2.000000  2.000000  2.000000
                       2.000000  2.000000  2.000000  2.000000  2.000000  2.000000
                       2.000000  2.000000  2.000000  2.000000  2.000000  2.000000
                       2.000000  2.000000  2.000000  2.000000  2.000000  2.000000
                       2.000000  2.000000  2.000000  2.000000  2.000000  2.000000
                       2.000000  2.000000  2.000000  2.000000  2.000000  2.000000
                       0.000000  0.000000
           shiftk      5.00000000E-01  5.00000000E-01  5.00000000E-01
          spgroup           1
           toldfe      1.00000000E-02 Hartree
            typat      1  1  2  2  2  2  3  3  3  3
              wtk        0.50000    0.50000
           xangst1     0.0000000000E+00  0.0000000000E+00  0.0000000000E+00
                       2.2968407562E+00  1.4793678043E+00  2.2968407562E+00
                       1.4240158683E+00  0.0000000000E+00  1.4240158683E+00
                       3.1696656440E+00  0.0000000000E+00  3.1696656440E+00
                       8.7282488785E-01  1.4793678043E+00  3.7208566245E+00
                       3.7208566245E+00  1.4793678043E+00  8.7282488785E-01
                       8.7282488785E-01  0.0000000000E+00  7.2395675553E+00
                       1.9453612542E+00  1.3755961537E+00  8.6151637090E+00
                       1.9453612542E+00 -1.3755961537E+00  8.6151637090E+00
                       0.0000000000E+00  0.0000000000E+00  9.9907069450E+00
           xangst2     0.0000000000E+00  0.0000000000E+00  0.0000000000E+00
                       2.2968407562E+00  1.4793678043E+00  2.2968407562E+00
                       1.4240158683E+00  0.0000000000E+00  1.4240158683E+00
                       3.1696656440E+00  0.0000000000E+00  3.1696656440E+00
                       8.7282488785E-01  1.4793678043E+00  3.7208566245E+00
                       3.7208566245E+00  1.4793678043E+00  8.7282488785E-01
                       8.7282488785E-01  0.0000000000E+00  7.3395820477E+00
                       1.9453612542E+00  1.3755961537E+00  8.7151782014E+00
                       1.9453612542E+00 -1.3755961537E+00  8.7151782014E+00
                       0.0000000000E+00  0.0000000000E+00  1.0090721437E+01
           xangst3     0.0000000000E+00  0.0000000000E+00  0.0000000000E+00
                       2.2968407562E+00  1.4793678043E+00  2.2968407562E+00
                       1.4240158683E+00  0.0000000000E+00  1.4240158683E+00
                       3.1696656440E+00  0.0000000000E+00  3.1696656440E+00
                       8.7282488785E-01  1.4793678043E+00  3.7208566245E+00
                       3.7208566245E+00  1.4793678043E+00  8.7282488785E-01
                       8.7282488785E-01  0.0000000000E+00  7.4395965401E+00
                       1.9453612542E+00  1.3755961537E+00  8.8151926939E+00
                       1.9453612542E+00 -1.3755961537E+00  8.8151926939E+00
                       0.0000000000E+00  0.0000000000E+00  1.0190735930E+01
           xangst4     0.0000000000E+00  0.0000000000E+00  0.0000000000E+00
                       2.2968407562E+00  1.4793678043E+00  2.2968407562E+00
                       1.4240158683E+00  0.0000000000E+00  1.4240158683E+00
                       3.1696656440E+00  0.0000000000E+00  3.1696656440E+00
                       8.7282488785E-01  1.4793678043E+00  3.7208566245E+00
                       3.7208566245E+00  1.4793678043E+00  8.7282488785E-01
                       8.7282488785E-01  0.0000000000E+00  7.5396110325E+00
                       1.9453612542E+00  1.3755961537E+00  8.9152071863E+00
                       1.9453612542E+00 -1.3755961537E+00  8.9152071863E+00
                       0.0000000000E+00  0.0000000000E+00  1.0290750422E+01
           xangst5     0.0000000000E+00  0.0000000000E+00  0.0000000000E+00
                       2.2968407562E+00  1.4793678043E+00  2.2968407562E+00
                       1.4240158683E+00  0.0000000000E+00  1.4240158683E+00
                       3.1696656440E+00  0.0000000000E+00  3.1696656440E+00
                       8.7282488785E-01  1.4793678043E+00  3.7208566245E+00
                       3.7208566245E+00  1.4793678043E+00  8.7282488785E-01
                       8.7282488785E-01  0.0000000000E+00  7.6396255250E+00
                       1.9453612542E+00  1.3755961537E+00  9.0152216787E+00
                       1.9453612542E+00 -1.3755961537E+00  9.0152216787E+00
                       0.0000000000E+00  0.0000000000E+00  1.0390764915E+01
            xcart1     0.0000000000E+00  0.0000000000E+00  0.0000000000E+00
                       4.3404000000E+00  2.7956000000E+00  4.3404000000E+00
                       2.6910000000E+00  0.0000000000E+00  2.6910000000E+00
                       5.9898000000E+00  0.0000000000E+00  5.9898000000E+00
                       1.6494000000E+00  2.7956000000E+00  7.0314000000E+00
                       7.0314000000E+00  2.7956000000E+00  1.6494000000E+00
                       1.6494000000E+00  0.0000000000E+00  1.3680800000E+01
                       3.6762000000E+00  2.5995000000E+00  1.6280300000E+01
                       3.6762000000E+00 -2.5995000000E+00  1.6280300000E+01
                       0.0000000000E+00  0.0000000000E+00  1.8879700000E+01
            xcart2     0.0000000000E+00  0.0000000000E+00  0.0000000000E+00
                       4.3404000000E+00  2.7956000000E+00  4.3404000000E+00
                       2.6910000000E+00  0.0000000000E+00  2.6910000000E+00
                       5.9898000000E+00  0.0000000000E+00  5.9898000000E+00
                       1.6494000000E+00  2.7956000000E+00  7.0314000000E+00
                       7.0314000000E+00  2.7956000000E+00  1.6494000000E+00
                       1.6494000000E+00  0.0000000000E+00  1.3869800000E+01
                       3.6762000000E+00  2.5995000000E+00  1.6469300000E+01
                       3.6762000000E+00 -2.5995000000E+00  1.6469300000E+01
                       0.0000000000E+00  0.0000000000E+00  1.9068700000E+01
            xcart3     0.0000000000E+00  0.0000000000E+00  0.0000000000E+00
                       4.3404000000E+00  2.7956000000E+00  4.3404000000E+00
                       2.6910000000E+00  0.0000000000E+00  2.6910000000E+00
                       5.9898000000E+00  0.0000000000E+00  5.9898000000E+00
                       1.6494000000E+00  2.7956000000E+00  7.0314000000E+00
                       7.0314000000E+00  2.7956000000E+00  1.6494000000E+00
                       1.6494000000E+00  0.0000000000E+00  1.4058800000E+01
                       3.6762000000E+00  2.5995000000E+00  1.6658300000E+01
                       3.6762000000E+00 -2.5995000000E+00  1.6658300000E+01
                       0.0000000000E+00  0.0000000000E+00  1.9257700000E+01
            xcart4     0.0000000000E+00  0.0000000000E+00  0.0000000000E+00
                       4.3404000000E+00  2.7956000000E+00  4.3404000000E+00
                       2.6910000000E+00  0.0000000000E+00  2.6910000000E+00
                       5.9898000000E+00  0.0000000000E+00  5.9898000000E+00
                       1.6494000000E+00  2.7956000000E+00  7.0314000000E+00
                       7.0314000000E+00  2.7956000000E+00  1.6494000000E+00
                       1.6494000000E+00  0.0000000000E+00  1.4247800000E+01
[...]
              kpt      1.25000000E-01  5.00000000E-01  5.00000000E-01
                       3.75000000E-01  5.00000000E-01  5.00000000E-01
           kptopt           2
         kptrlatt        4    0    0      0    1    0      0    0    1
          kptrlen      8.68080000E+00
P           mkmem           2
            natom          10
            nband          62
           ndtset           5
            ngfft          64      64     180
             nkpt           2
            nstep          40
             nsym           1
           ntypat           3
              occ      2.000000  2.000000  2.000000  2.000000  2.000000  2.000000
                       2.000000  2.000000  2.000000  2.000000  2.000000  2.000000
                       2.000000  2.000000  2.000000  2.000000  2.000000  2.000000
                       2.000000  2.000000  2.000000  2.000000  2.000000  2.000000
                       2.000000  2.000000  2.000000  2.000000  2.000000  2.000000
                       2.000000  2.000000  2.000000  2.000000  2.000000  2.000000
                       2.000000  2.000000  2.000000  2.000000  2.000000  2.000000
                       2.000000  2.000000  2.000000  2.000000  2.000000  2.000000
                       2.000000  2.000000  2.000000  2.000000  2.000000  2.000000
                       2.000000  2.000000  2.000000  2.000000  2.000000  2.000000
                       0.000000  0.000000
           shiftk      5.00000000E-01  5.00000000E-01  5.00000000E-01
          spgroup           1
           strten1     2.5782040748E-04 -8.4160386580E-04  2.8745411573E-04
                       1.8052325153E-05 -1.4106498380E-04 -8.7670299820E-05
           strten2     2.8757811500E-04 -8.0097122692E-04  3.5419418764E-04
                       1.5121655505E-05 -1.4478153319E-04 -8.8934599807E-05
           strten3     2.4924879625E-04 -8.2252551270E-04  2.7715534848E-04
                       2.1395124370E-05 -1.3721696665E-04 -8.3658354002E-05
           strten4     3.7938183797E-04 -7.7125885056E-04  5.5363616270E-04
                       2.3276364868E-05 -1.3801078786E-04 -8.0798228472E-05
           strten5     2.3355840038E-04 -8.1766057947E-04  2.4866212291E-04
                       2.2453287539E-05 -1.3231917124E-04 -8.1876995558E-05
           toldfe      1.00000000E-02 Hartree
            typat      1  1  2  2  2  2  3  3  3  3
              wtk        0.50000    0.50000
           xangst1     0.0000000000E+00  0.0000000000E+00  0.0000000000E+00
                       2.2968407562E+00  1.4793678043E+00  2.2968407562E+00
                       1.4240158683E+00  0.0000000000E+00  1.4240158683E+00
                       3.1696656440E+00  0.0000000000E+00  3.1696656440E+00
                       8.7282488785E-01  1.4793678043E+00  3.7208566245E+00
                       3.7208566245E+00  1.4793678043E+00  8.7282488785E-01
                       8.7282488785E-01  0.0000000000E+00  7.2395675553E+00
                       1.9453612542E+00  1.3755961537E+00  8.6151637090E+00
                       1.9453612542E+00 -1.3755961537E+00  8.6151637090E+00
                       0.0000000000E+00  0.0000000000E+00  9.9907069450E+00
           xangst2     0.0000000000E+00  0.0000000000E+00  0.0000000000E+00
                       2.2968407562E+00  1.4793678043E+00  2.2968407562E+00
                       1.4240158683E+00  0.0000000000E+00  1.4240158683E+00
                       3.1696656440E+00  0.0000000000E+00  3.1696656440E+00
                       8.7282488785E-01  1.4793678043E+00  3.7208566245E+00
                       3.7208566245E+00  1.4793678043E+00  8.7282488785E-01
                       8.7282488785E-01  0.0000000000E+00  7.3395820477E+00
                       1.9453612542E+00  1.3755961537E+00  8.7151782014E+00
                       1.9453612542E+00 -1.3755961537E+00  8.7151782014E+00
                       0.0000000000E+00  0.0000000000E+00  1.0090721437E+01
           xangst3     0.0000000000E+00  0.0000000000E+00  0.0000000000E+00
                       2.2968407562E+00  1.4793678043E+00  2.2968407562E+00
                       1.4240158683E+00  0.0000000000E+00  1.4240158683E+00
                       3.1696656440E+00  0.0000000000E+00  3.1696656440E+00
                       8.7282488785E-01  1.4793678043E+00  3.7208566245E+00
                       3.7208566245E+00  1.4793678043E+00  8.7282488785E-01
                       8.7282488785E-01  0.0000000000E+00  7.4395965401E+00
                       1.9453612542E+00  1.3755961537E+00  8.8151926939E+00
                       1.9453612542E+00 -1.3755961537E+00  8.8151926939E+00
                       0.0000000000E+00  0.0000000000E+00  1.0190735930E+01
           xangst4     0.0000000000E+00  0.0000000000E+00  0.0000000000E+00
                       2.2968407562E+00  1.4793678043E+00  2.2968407562E+00
                       1.4240158683E+00  0.0000000000E+00  1.4240158683E+00
                       3.1696656440E+00  0.0000000000E+00  3.1696656440E+00
                       8.7282488785E-01  1.4793678043E+00  3.7208566245E+00
                       3.7208566245E+00  1.4793678043E+00  8.7282488785E-01
                       8.7282488785E-01  0.0000000000E+00  7.5396110325E+00
                       1.9453612542E+00  1.3755961537E+00  8.9152071863E+00
                       1.9453612542E+00 -1.3755961537E+00  8.9152071863E+00
                       0.0000000000E+00  0.0000000000E+00  1.0290750422E+01
           xangst5     0.0000000000E+00  0.0000000000E+00  0.0000000000E+00
                       2.2968407562E+00  1.4793678043E+00  2.2968407562E+00
                       1.4240158683E+00  0.0000000000E+00  1.4240158683E+00
                       3.1696656440E+00  0.0000000000E+00  3.1696656440E+00
                       8.7282488785E-01  1.4793678043E+00  3.7208566245E+00
                       3.7208566245E+00  1.4793678043E+00  8.7282488785E-01
                       8.7282488785E-01  0.0000000000E+00  7.6396255250E+00
                       1.9453612542E+00  1.3755961537E+00  9.0152216787E+00
                       1.9453612542E+00 -1.3755961537E+00  9.0152216787E+00
                       0.0000000000E+00  0.0000000000E+00  1.0390764915E+01
            xcart1     0.0000000000E+00  0.0000000000E+00  0.0000000000E+00
                       4.3404000000E+00  2.7956000000E+00  4.3404000000E+00
                       2.6910000000E+00  0.0000000000E+00  2.6910000000E+00
                       5.9898000000E+00  0.0000000000E+00  5.9898000000E+00
                       1.6494000000E+00  2.7956000000E+00  7.0314000000E+00
                       7.0314000000E+00  2.7956000000E+00  1.6494000000E+00
                       1.6494000000E+00  0.0000000000E+00  1.3680800000E+01
                       3.6762000000E+00  2.5995000000E+00  1.6280300000E+01
                       3.6762000000E+00 -2.5995000000E+00  1.6280300000E+01
                       0.0000000000E+00  0.0000000000E+00  1.8879700000E+01
            xcart2     0.0000000000E+00  0.0000000000E+00  0.0000000000E+00
                       4.3404000000E+00  2.7956000000E+00  4.3404000000E+00
                       2.6910000000E+00  0.0000000000E+00  2.6910000000E+00
                       5.9898000000E+00  0.0000000000E+00  5.9898000000E+00
                       1.6494000000E+00  2.7956000000E+00  7.0314000000E+00
                       7.0314000000E+00  2.7956000000E+00  1.6494000000E+00
                       1.6494000000E+00  0.0000000000E+00  1.3869800000E+01
                       3.6762000000E+00  2.5995000000E+00  1.6469300000E+01
                       3.6762000000E+00 -2.5995000000E+00  1.6469300000E+01
                       0.0000000000E+00  0.0000000000E+00  1.9068700000E+01
            xcart3     0.0000000000E+00  0.0000000000E+00  0.0000000000E+00
                       4.3404000000E+00  2.7956000000E+00  4.3404000000E+00
                       2.6910000000E+00  0.0000000000E+00  2.6910000000E+00
                       5.9898000000E+00  0.0000000000E+00  5.9898000000E+00
                       1.6494000000E+00  2.7956000000E+00  7.0314000000E+00
                       7.0314000000E+00  2.7956000000E+00  1.6494000000E+00
                       1.6494000000E+00  0.0000000000E+00  1.4058800000E+01
                       3.6762000000E+00  2.5995000000E+00  1.6658300000E+01
                       3.6762000000E+00 -2.5995000000E+00  1.6658300000E+01
                       0.0000000000E+00  0.0000000000E+00  1.9257700000E+01
            xcart4     0.0000000000E+00  0.0000000000E+00  0.0000000000E+00
                       4.3404000000E+00  2.7956000000E+00  4.3404000000E+00
                       2.6910000000E+00  0.0000000000E+00  2.6910000000E+00
                       5.9898000000E+00  0.0000000000E+00  5.9898000000E+00
                       1.6494000000E+00  2.7956000000E+00  7.0314000000E+00
                       7.0314000000E+00  2.7956000000E+00  1.6494000000E+00
                       1.6494000000E+00  0.0000000000E+00  1.4247800000E+01
                       3.6762000000E+00  2.5995000000E+00  1.6847300000E+01
                       3.6762000000E+00 -2.5995000000E+00  1.6847300000E+01
                       0.0000000000E+00  0.0000000000E+00  1.9446700000E+01
            xcart5     0.0000000000E+00  0.0000000000E+00  0.0000000000E+00
                       4.3404000000E+00  2.7956000000E+00  4.3404000000E+00
                       2.6910000000E+00  0.0000000000E+00  2.6910000000E+00
                       5.9898000000E+00  0.0000000000E+00  5.9898000000E+00
                       1.6494000000E+00  2.7956000000E+00  7.0314000000E+00
                       7.0314000000E+00  2.7956000000E+00  1.6494000000E+00
                       1.6494000000E+00  0.0000000000E+00  1.4436800000E+01
                       3.6762000000E+00  2.5995000000E+00  1.7036300000E+01
                       3.6762000000E+00 -2.5995000000E+00  1.7036300000E+01
                       0.0000000000E+00  0.0000000000E+00  1.9635700000E+01
             xred1     0.0000000000E+00  0.0000000000E+00  0.0000000000E+00
                       5.0000000000E-01  3.2204405124E-01  1.7361600000E-01
                       3.0999447056E-01  0.0000000000E+00  1.0764000000E-01
                       6.9000552944E-01  0.0000000000E+00  2.3959200000E-01
                       1.9000552944E-01  3.2204405124E-01  2.8125600000E-01
                       8.0999447056E-01  3.2204405124E-01  6.5976000000E-02
                       1.9000552944E-01  0.0000000000E+00  5.4723200000E-01
                       4.2348631463E-01  2.9945396738E-01  6.5121200000E-01
                       4.2348631463E-01 -2.9945396738E-01  6.5121200000E-01
                       0.0000000000E+00  0.0000000000E+00  7.5518800000E-01
             xred2     0.0000000000E+00  0.0000000000E+00  0.0000000000E+00
                       5.0000000000E-01  3.2204405124E-01  1.7231331137E-01
                       3.0999447056E-01  0.0000000000E+00  1.0683234745E-01
                       6.9000552944E-01  0.0000000000E+00  2.3779427528E-01
                       1.9000552944E-01  3.2204405124E-01  2.7914565882E-01
                       8.0999447056E-01  3.2204405124E-01  6.5480963913E-02
                       1.9000552944E-01  0.0000000000E+00  5.5062924292E-01
                       4.2348631463E-01  2.9945396738E-01  6.5382905236E-01
                       4.2348631463E-01 -2.9945396738E-01  6.5382905236E-01
                       0.0000000000E+00  0.0000000000E+00  7.5702489182E-01
             xred3     0.0000000000E+00  0.0000000000E+00  0.0000000000E+00
                       5.0000000000E-01  3.2204405124E-01  1.7103002601E-01
                       3.0999447056E-01  0.0000000000E+00  1.0603672472E-01
                       6.9000552944E-01  0.0000000000E+00  2.3602332729E-01
                       1.9000552944E-01  3.2204405124E-01  2.7706675073E-01
                       8.0999447056E-01  3.2204405124E-01  6.4993301285E-02
                       1.9000552944E-01  0.0000000000E+00  5.5397588462E-01
                       4.2348631463E-01  2.9945396738E-01  6.5640712428E-01
                       4.2348631463E-01 -2.9945396738E-01  6.5640712428E-01
                       0.0000000000E+00  0.0000000000E+00  7.5883442352E-01
             xred4     0.0000000000E+00  0.0000000000E+00  0.0000000000E+00
                       5.0000000000E-01  3.2204405124E-01  1.6976571362E-01
                       3.0999447056E-01  0.0000000000E+00  1.0525286502E-01
                       6.9000552944E-01  0.0000000000E+00  2.3427856221E-01
                       1.9000552944E-01  3.2204405124E-01  2.7501857864E-01
                       8.0999447056E-01  3.2204405124E-01  6.4512848594E-02
                       1.9000552944E-01  0.0000000000E+00  5.5727304729E-01
                       4.2348631463E-01  2.9945396738E-01  6.5894708022E-01
                       4.2348631463E-01 -2.9945396738E-01  6.5894708022E-01
                       0.0000000000E+00  0.0000000000E+00  7.6061720186E-01
             xred5     0.0000000000E+00  0.0000000000E+00  0.0000000000E+00
                       5.0000000000E-01  3.2204405124E-01  1.6851995651E-01
                       3.0999447056E-01  0.0000000000E+00  1.0448050940E-01
                       6.9000552944E-01  0.0000000000E+00  2.3255940363E-01
                       1.9000552944E-01  3.2204405124E-01  2.7300046591E-01
                       8.0999447056E-01  3.2204405124E-01  6.4039447119E-02
                       1.9000552944E-01  0.0000000000E+00  5.6052182016E-01
                       4.2348631463E-01  2.9945396738E-01  6.6144975928E-01
                       4.2348631463E-01 -2.9945396738E-01  6.6144975928E-01
                       0.0000000000E+00  0.0000000000E+00  7.6237381581E-01
            znucl       22.00000    8.00000   46.00000

-
-  as well as % of the time and number of calls for node 0-
-<BEGIN_TIMER mpi_nprocs = 1, omp_nthreads = 1, mpi_rank = 0>
- cpu_time =         6800.2, wall_time =         6824.4
-
-                                                                  (-1=no count)
- projbd                      1915.609  28.2   1924.871  28.2         173894      -1.00        1.00       1.00
- nonlop(apply)               1842.141  27.1   1847.407  27.1         109019      -1.00        1.00       1.00
- fourwf%(pot)                1829.781  26.9   1835.906  26.9         109019      -1.00        1.00       1.00
- vtowfk(ssdiag)               339.250   5.0    340.240   5.0             -1      -1.00        1.00       1.00
- fourwf%(den)                 197.438   2.9    197.801   2.9          20160      -1.00        1.00       1.00
- xc:pot/=fourdp                43.375   0.6     43.013   0.6            173      -1.00        1.01       1.01
- getghc-other                  39.344   0.6     39.095   0.6             -1      -1.00        1.01       1.01
- fourdp                        37.062   0.5     37.985   0.6           2061      -1.00        0.98       0.98
- others (105)                  74.219   1.1     75.506   1.1             -1      -1.00        0.98       0.98
-<END_TIMER>
-
- subtotal                    6318.219  92.9   6341.824  92.9                                  1.00       1.00

- as well as % of the total time and number of calls

-<BEGIN_TIMER mpi_nprocs = 1, omp_nthreads = 1, mpi_rank = world>
- cpu_time =        6800.2, wall_time =        6824.4
-
-                                                                  (-1=no count)
- projbd                      1915.609  28.2   1924.871  28.2         173894      -1.00        1.00       1.00
- nonlop(apply)               1842.141  27.1   1847.407  27.1         109019      -1.00        1.00       1.00
- fourwf%(pot)                1829.781  26.9   1835.906  26.9         109019      -1.00        1.00       1.00
- vtowfk(ssdiag)               339.250   5.0    340.240   5.0             -1      -1.00        1.00       1.00
- fourwf%(den)                 197.438   2.9    197.801   2.9          20160      -1.00        1.00       1.00
- xc:pot/=fourdp                43.375   0.6     43.013   0.6            173      -1.00        1.01       1.01
- getghc-other                  39.344   0.6     39.095   0.6             -1      -1.00        1.01       1.01
- fourdp                        37.062   0.5     37.985   0.6           2061      -1.00        0.98       0.98
- others (105)                  74.219   1.1     75.506   1.1             -1      -1.00        0.98       0.98
-<END_TIMER>

- subtotal                    6318.219  92.9   6341.824  92.9                                  1.00       1.00

 Suggested references for the acknowledgment of ABINIT usage.

 Calculation completed.
.Delivered   0 WARNINGs and  10 COMMENTs to log file.