.Version 8.6.3 of ABINIT
.(sequential version, prepared for a x86_64_linux_gnu5.4 computer)

 ABINIT is a project of the Universite Catholique de Louvain,
 Corning Inc. and other collaborators, see ~abinit/doc/developers/contributors.txt .
 Please read ~abinit/doc/users/acknowledgments.html for suggested
 acknowledgments of the ABINIT effort.

.Starting date : Sat 21 Apr 2018.
- ( at 11h13 )

- input  file    -> RutileGeom.in
- output file    -> RutileGeom.out
- root for input  files -> RutileGeom_i
- root for output files -> RutileGeom_o

 Symmetries : space group P-4 2_1 m (#113); Bravais tP (primitive tetrag.)
     intxc =       0    ionmov =       2      iscf =       7    lmnmax =       2
     lnmax =       2     mgfft =      30  mpssoang =       3    mqgrid =    3001
     natom =       6  nloc_mem =       1    nspden =       1   nspinor =       1
    nsppol =       1      nsym =       8    n1xccc =    2501    ntypat =       2
    occopt =       1   xclevel =       1
-    mband =          17        mffmem =           1         mkmem =           8
       mpw =         794          nfft =       16200          nkpt =           8
  Rough estimation (10% accuracy) of disk space for files :

------------- Echo of variables that govern the present computation ------------
-
- outvars: echo of selected default values
-   iomode0 =  0 , fftalg0 =112 , wfoptalg0 =  0
-
- outvars: echo of global parameters not present in the input file
-  max_nthreads =    0
-
 -outvars: echo values of preprocessed input variables --------
            acell      8.6808000000E+00  8.6808000000E+00  5.5911000000E+00 Bohr
              amu      4.78800000E+01  1.59994000E+01
           diemac      1.20000000E+01
          dilatmx      1.20000000E+00
             ecut      8.00000000E+00 Hartree
           ecutsm      5.00000000E-01 Hartree
-          fftalg         112
           getwfk          -1
           ionmov           2
              kpt      0.00000000E+00  2.50000000E-01  0.00000000E+00
                       2.50000000E-01  5.00000000E-01  0.00000000E+00
                       0.00000000E+00  0.00000000E+00  2.50000000E-01
                       0.00000000E+00  5.00000000E-01  2.50000000E-01
                       2.50000000E-01  2.50000000E-01  2.50000000E-01
                       5.00000000E-01  5.00000000E-01  2.50000000E-01
                       0.00000000E+00  2.50000000E-01  5.00000000E-01
                       2.50000000E-01  5.00000000E-01  5.00000000E-01
         kptrlatt        2   -2   -2      2    2   -2      0    0    4
          kptrlen      2.23644000E+01
P           mkmem           8
            natom           6
            nband          17
            ngfft          30      30      18
             nkpt           8
            nstep          10
             nsym           8
            ntime          10
           ntypat           2
              occ      2.000000  2.000000  2.000000  2.000000  2.000000  2.000000
                       2.000000  2.000000  2.000000  2.000000  2.000000  2.000000
                       2.000000  2.000000  2.000000  2.000000  0.000000
          optcell           1
           shiftk     -5.00000000E-01 -5.00000000E-01  1.00000000E+00
          spgroup         113
           symrel      1  0  0   0  1  0   0  0  1      -1  0  0   0  1  0   0  0 -1
                      -1  0  0   0 -1  0   0  0  1       1  0  0   0 -1  0   0  0 -1
                       0  1  0   1  0  0   0  0  1       0 -1  0   1  0  0   0  0 -1
                       0 -1  0  -1  0  0   0  0  1       0  1  0  -1  0  0   0  0 -1
            tnons      0.0000000  0.0000000  0.0000000     0.5000000  0.5000000 -0.4999911
                       0.0000000  0.0000000  0.0000000     0.5000000  0.5000000 -0.4999911
                       0.0000000  0.0000000  0.0000000     0.5000000  0.5000000 -0.4999911
                       0.0000000  0.0000000  0.0000000     0.5000000  0.5000000 -0.4999911
           toldfe      1.00000000E-04 Hartree
            typat      1  1  2  2  2  2
              wtk        0.12500    0.12500    0.06250    0.12500    0.25000    0.06250
                         0.12500    0.12500
           xangst      0.0000000000E+00  0.0000000000E+00  0.0000000000E+00
                       2.2968407562E+00  2.2968407562E+00  1.4793678043E+00
                       1.4240158683E+00  1.4240158683E+00  0.0000000000E+00
                       3.1696656440E+00  3.1696656440E+00  0.0000000000E+00
                       8.7282488785E-01  3.7208566245E+00  1.4793678043E+00
                       3.7208566245E+00  8.7282488785E-01  1.4793678043E+00
            xcart      0.0000000000E+00  0.0000000000E+00  0.0000000000E+00
                       4.3404000000E+00  4.3404000000E+00  2.7956000000E+00
                       2.6910000000E+00  2.6910000000E+00  0.0000000000E+00
                       5.9898000000E+00  5.9898000000E+00  0.0000000000E+00
                       1.6494000000E+00  7.0314000000E+00  2.7956000000E+00
                       7.0314000000E+00  1.6494000000E+00  2.7956000000E+00
             xred      0.0000000000E+00  0.0000000000E+00  0.0000000000E+00
                       5.0000000000E-01  5.0000000000E-01  5.0000894278E-01
                       3.0999447056E-01  3.0999447056E-01  0.0000000000E+00
                       6.9000552944E-01  6.9000552944E-01  0.0000000000E+00
                       1.9000552944E-01  8.0999447056E-01  5.0000894278E-01
                       8.0999447056E-01  1.9000552944E-01  5.0000894278E-01
            znucl       22.00000    8.00000

 chkinp: Checking input parameters for consistency.

 chkinp: WARNING -
   Chksymbreak=1 . Found potentially symmetry-breaking value of tnons,
   which is neither a rational fraction in 1/8th nor in 1/12th :
   for the symmetry number    2
   symrel is  -1  0  0  0  1  0  0  0 -1
   tnons is     5.000000E-01    5.000000E-01   -4.999911E-01
   Please, read the description of the input variable chksymbreak,
   then, if you feel confident, you might switch it to zero, or consult with the forum.

[...]

 chkinp: WARNING -
   Chksymbreak=1 . Found potentially symmetry-breaking value of tnons,
   which is neither a rational fraction in 1/8th nor in 1/12th :
   for the symmetry number    8
   symrel is   0  1  0 -1  0  0  0  0 -1
   tnons is     5.000000E-01    5.000000E-01   -4.999911E-01
   Please, read the description of the input variable chksymbreak,
   then, if you feel confident, you might switch it to zero, or consult with the forum.

== DATASET  1 ==================================================================
-   nproc =    1

 Real(R)+Recip(G) space primitive vectors, cartesian coordinates (Bohr,Bohr^-1):
 R(1)=  8.6808000  0.0000000  0.0000000  G(1)=  0.1151968  0.0000000  0.0000000
 R(2)=  0.0000000  8.6808000  0.0000000  G(2)=  0.0000000  0.1151968  0.0000000
 R(3)=  0.0000000  0.0000000  5.5911000  G(3)=  0.0000000  0.0000000  0.1788557
 Unit cell volume ucvol=  4.2132455E+02 bohr^3
 Angles (23,13,12)=  9.00000000E+01  9.00000000E+01  9.00000000E+01 degrees

 getcut: wavevector=  0.0000  0.0000  0.0000  ngfft=  30  30  18
         ecut(hartree)=     11.520   => boxcut(ratio)=   2.10709

--- Pseudopotential description ------------------------------------------------
- pspini: atom type   1  psp file is ../../../Psps_for_tests/22ti.pspnc
- pspatm: opening atomic psp file    ../../../Psps_for_tests/22ti.pspnc
-  Troullier-Martins psp for element  Ti        Thu Oct 27 17:33:40 EDT 1994
- 22.00000   4.00000    940714                znucl, zion, pspdat
    1    1    2    0      2001   0.00000      pspcod,pspxc,lmax,lloc,mmax,r2well
    0   5.166   8.509    0   2.4203472        l,e99.0,e99.9,nproj,rcpsp
   0.00000000   0.00000000   0.00000000   0.00000000     rms, ekb1, ekb2, epsatm
    1   2.285   3.944    1   2.9934301        l,e99.0,e99.9,nproj,rcpsp
   0.00000000   0.00000000   0.00000000   0.00000000     rms, ekb1, ekb2, epsatm
    2  20.947  27.069    1   1.9326638        l,e99.0,e99.9,nproj,rcpsp
   0.00000000   0.00000000   0.00000000   0.00000000     rms, ekb1, ekb2, epsatm
    2.82741504495369    0.09256629068341    1.82586447305099   rchrg,fchrg,qchrg
  pspatm : epsatm=   66.67453488
         --- l  ekb(1:nproj) -->
             1    0.915537
             2   -8.015692
 pspatm: atomic psp has been read  and splines computed

- pspini: atom type   2  psp file is ../../../Psps_for_tests/8o.pspnc
- pspatm: opening atomic psp file    ../../../Psps_for_tests/8o.pspnc
-  Troullier-Martins psp for element  O         Thu Oct 27 17:29:57 EDT 1994
-  8.00000   6.00000    940714                znucl, zion, pspdat
    1    1    1    1      2001   0.00000      pspcod,pspxc,lmax,lloc,mmax,r2well
    0   5.480  16.893    1   1.4482335        l,e99.0,e99.9,nproj,rcpsp
   0.00000000   0.00000000   0.00000000   0.00000000     rms, ekb1, ekb2, epsatm
    1  20.911  28.075    0   1.4482335        l,e99.0,e99.9,nproj,rcpsp
   0.00000000   0.00000000   0.00000000   0.00000000     rms, ekb1, ekb2, epsatm
    0.56990156784787    3.95561236318184    0.63894027514378   rchrg,fchrg,qchrg
  pspatm : epsatm=    1.57752239
         --- l  ekb(1:nproj) -->
             0    5.670783
 pspatm: atomic psp has been read  and splines computed

   4.46909310E+03                                ecore*ucvol(ha*bohr**3)

_setup2: Arith. and geom. avg. npw (full set) are     788.688     788.675

=== [ionmov= 2] Broyden-Fletcher-Goldfard-Shanno method (forces)

--- Iteration: ( 1/10) Internal Cycle: (1/1)

---SELF-CONSISTENT-FIELD CONVERGENCE--------------------------------------------

     iter   Etot(hartree)      deltaE(h)  residm     vres2
 ETOT  1  -67.903247857323    -6.790E+01 3.881E-02 3.194E+02
 ETOT  2  -68.310724474704    -4.075E-01 2.747E-03 1.042E+02
 ETOT  3  -68.471610593990    -1.609E-01 2.400E-03 5.379E-01
 ETOT  4  -68.471923563571    -3.130E-04 2.657E-04 4.847E-03
 ETOT  5  -68.471927519299    -3.956E-06 1.762E-05 9.895E-05
 ETOT  6  -68.471927602848    -8.355E-08 9.159E-06 1.393E-06

 At SCF step    6, etot is converged :
  for the second time, diff in etot=  8.355E-08 < toldfe=  1.000E-04

 Cartesian components of stress tensor (hartree/bohr^3)
  sigma(1 1)= -2.92750030E-03  sigma(3 2)=  0.00000000E+00
  sigma(2 2)= -2.92750030E-03  sigma(3 1)=  0.00000000E+00
  sigma(3 3)= -5.92964332E-03  sigma(2 1)=  0.00000000E+00

 Integrated electronic density in atomic spheres:
 Atom  Sphere_radius  Integrated_density
    1        2.00000          0.95341869
    2        2.00000          0.95341869
    3        2.00000          6.19780255
    4        2.00000          6.19780255
    5        2.00000          6.19780255
    6        2.00000          6.19780255

---OUTPUT-----------------------------------------------------------------------

 Cartesian coordinates (xcart) [bohr]
  0.00000000000000E+00  0.00000000000000E+00  0.00000000000000E+00
  4.34040000000000E+00  4.34040000000000E+00  2.79560000000000E+00
  2.69100000000000E+00  2.69100000000000E+00  0.00000000000000E+00
  5.98980000000000E+00  5.98980000000000E+00  0.00000000000000E+00
  1.64940000000000E+00  7.03140000000000E+00  2.79560000000000E+00
[...]
  0.00000000000000E+00 -2.92750030373404E-03  0.00000000000000E+00
  0.00000000000000E+00  0.00000000000000E+00 -5.92964332414332E-03
 Total energy (etotal) [Ha]= -6.84719276028481E+01

[...]

 Difference of energy with previous step (new-old):
           Absolute (Ha)=-3.50101E-01
           Relative     =-5.10002E-03

[...]

 Difference of energy with previous step (new-old):
           Absolute (Ha)= 3.28079E-05
           Relative     = 4.76661E-07

[...]

--- Iteration: ( 9/10) Internal Cycle: (1/1)

---SELF-CONSISTENT-FIELD CONVERGENCE--------------------------------------------

     iter   Etot(hartree)      deltaE(h)  residm     vres2
 ETOT  1  -68.828546726449    -6.883E+01 5.298E-07 4.179E-05
 ETOT  2  -68.828546761752    -3.530E-08 2.206E-11 2.217E-05
 ETOT  3  -68.828546810532    -4.878E-08 4.132E-10 6.863E-08

 At SCF step    3, etot is converged :
  for the second time, diff in etot=  4.878E-08 < toldfe=  1.000E-04

[...]

 Integrated electronic density in atomic spheres:
 Atom  Sphere_radius  Integrated_density
    1        2.00000          0.55315202
    2        2.00000          0.55315202
    3        2.00000          5.80555658
    4        2.00000          5.80555658
    5        2.00000          5.80555658
    6        2.00000          5.80555658

---OUTPUT-----------------------------------------------------------------------

 Cartesian coordinates (xcart) [bohr]
 -1.04076508664623E-18 -1.70156840884126E-20  3.64579774637215E-05
  4.92999903859943E+00  4.92999903859943E+00  3.17531726801752E+00
  2.96065184281280E+00  2.96065184281280E+00  2.78329359159576E-05
  6.89934623438608E+00  6.89934623438608E+00  2.78329359159576E-05
  1.96934719578664E+00  7.89065088141222E+00  3.17532589305905E+00
  7.89065088141222E+00  1.96934719578664E+00  3.17532589305905E+00
 Reduced coordinates (xred)
 -1.05554289006708E-19 -1.72572894590732E-21  5.74087687253448E-06
  5.00000000000000E-01  5.00000000000000E-01  5.00003201907196E-01
  3.00269008130871E-01  3.00269008130871E-01  4.38272963039856E-06
  6.99730991869130E-01  6.99730991869130E-01  4.38272963039856E-06
  1.99730991869129E-01  8.00269008130870E-01  5.00004560054436E-01
  8.00269008130870E-01  1.99730991869129E-01  5.00004560054436E-01
 Cartesian forces (fcart) [Ha/bohr]; max,rms= 4.97727E-06 3.33175E-06 (free atoms)
 -2.82344315911446E-22 -3.20024770408523E-31 -8.98656402362587E-07
 -2.82344316071458E-22 -3.20024770408523E-31  8.98656402362587E-07
  4.97727039825970E-06  4.97727039825970E-06  4.67837144749447E-08
 -4.97727039825970E-06 -4.97727039825970E-06  4.67837144749447E-08
 -4.97727039825970E-06  4.97727039825970E-06 -4.67837144749448E-08
  4.97727039825970E-06 -4.97727039825970E-06 -4.67837144749448E-08
 Reduced forces (fred)
  2.78391441199489E-21  3.15544362088405E-30  5.70700183829233E-06
  2.78391441357261E-21  3.15544362088405E-30 -5.70700183829233E-06
 -4.90758765565395E-05 -4.90758765565395E-05 -2.97104370267343E-07
  4.90758765565395E-05  4.90758765565395E-05 -2.97104370267343E-07
  4.90758765565395E-05 -4.90758765565395E-05  2.97104370267344E-07
 -4.90758765565395E-05  4.90758765565395E-05  2.97104370267344E-07
 Scale of Primitive Cell (acell) [bohr]
  9.85999807719887E+00  9.85999807719887E+00  6.35059386801062E+00
 Real space primitive translations (rprimd) [bohr]
  9.85999807719887E+00  0.00000000000000E+00  0.00000000000000E+00
  0.00000000000000E+00  9.85999807719887E+00  0.00000000000000E+00
  0.00000000000000E+00  0.00000000000000E+00  6.35059386801062E+00
 Unitary Cell Volume (ucvol) [Bohr^3]=  6.17401954810947E+02
 Angles (23,13,12)= [degrees]
  9.00000000000000E+01  9.00000000000000E+01  9.00000000000000E+01
 Lengths [Bohr]
  9.85999807719887E+00  9.85999807719887E+00  6.35059386801062E+00
 Stress tensor in cartesian coordinates (strten) [Ha/bohr^3]
  2.52720551554569E-04  0.00000000000000E+00  0.00000000000000E+00
  0.00000000000000E+00  2.52720551554569E-04  0.00000000000000E+00
  0.00000000000000E+00  0.00000000000000E+00 -5.04897019831353E-04
 Total energy (etotal) [Ha]= -6.88285468105323E+01

 Difference of energy with previous step (new-old):
           Absolute (Ha)=-1.80956E-08
           Relative     =-2.62909E-10

 At Broyd/MD step   9, gradients are converged :
  max grad (force/stress) = 1.8136E-05 < tolmxf= 5.0000E-05 ha/bohr (free atoms)

 ----iterations are completed or convergence reached----

 Mean square residual over all n,k,spin=   6.7161E-11; max=  4.1325E-10
 reduced coordinates (array xred) for    6 atoms
      -0.000000000000     -0.000000000000      0.000005740877
       0.500000000000      0.500000000000      0.500003201907
       0.300269008131      0.300269008131      0.000004382730
       0.699730991869      0.699730991869      0.000004382730
       0.199730991869      0.800269008131      0.500004560054
       0.800269008131      0.199730991869      0.500004560054
 rms dE/dt=  3.2773E-05; max dE/dt=  4.9076E-05; dE/dt below (all hartree)
    1       0.000000000000      0.000000000000      0.000005707002
    2       0.000000000000      0.000000000000     -0.000005707002
    3      -0.000049075877     -0.000049075877     -0.000000297104
    4       0.000049075877      0.000049075877     -0.000000297104
    5       0.000049075877     -0.000049075877      0.000000297104
    6      -0.000049075877      0.000049075877      0.000000297104

 cartesian coordinates (angstrom) at end:
    1     -0.00000000000000    -0.00000000000000     0.00001929273075
    2      2.60884312959743     2.60884312959743     1.68030552827713
    3      1.56670947778652     1.56670947778652     0.00001472855533
    4      3.65097678140835     3.65097678140835     0.00001472855533
    5      1.04213365181092     4.17555260738394     1.68031009245254
    6      4.17555260738394     1.04213365181092     1.68031009245254

 cartesian forces (hartree/bohr) at end:
    1     -0.00000000000000    -0.00000000000000    -0.00000089865640
    2     -0.00000000000000    -0.00000000000000     0.00000089865640
    3      0.00000497727040     0.00000497727040     0.00000004678371
    4     -0.00000497727040    -0.00000497727040     0.00000004678371
    5     -0.00000497727040     0.00000497727040    -0.00000004678371
    6      0.00000497727040    -0.00000497727040    -0.00000004678371
 frms,max,avg= 3.3317470E-06 4.9772704E-06   0.000E+00  0.000E+00  0.000E+00 h/b

 cartesian forces (eV/Angstrom) at end:
    1     -0.00000000000000    -0.00000000000000    -0.00004621076631
    2     -0.00000000000000    -0.00000000000000     0.00004621076631
    3      0.00025594151294     0.00025594151294     0.00000240571512
    4     -0.00025594151294    -0.00025594151294     0.00000240571512
    5     -0.00025594151294     0.00025594151294    -0.00000240571512
    6      0.00025594151294    -0.00025594151294    -0.00000240571512
 frms,max,avg= 1.7132531E-04 2.5594151E-04   0.000E+00  0.000E+00  0.000E+00 e/A
 length scales=  9.859998077199  9.859998077199  6.350593868011 bohr
              =  5.217686259195  5.217686259195  3.360589535963 angstroms
 prteigrs : about to open file RutileGeom_o_EIG
 Fermi (or HOMO) energy (hartree) =   0.00795   Average Vxc (hartree)=  -0.38008
 Eigenvalues (hartree) for nkpt=   8  k points:
 kpt#   1, nband= 17, wtk=  0.12500, kpt=  0.0000  0.2500  0.0000 (reduced coord)
  -0.93159   -0.91999   -0.91606   -0.91452   -0.23292   -0.15865   -0.12952   -0.10800
  -0.08452   -0.07818   -0.06883   -0.06038   -0.04820   -0.02941   -0.01838    0.00795
   0.05568
 prteigrs : prtvol=0 or 1, do not print more k-points.

 Components of total free energy (in Hartree) :

    Kinetic energy  =  3.28881718237432E+01
    Hartree energy  =  1.61508401214815E+01
    XC energy       = -1.86870363971262E+01
    Ewald energy    = -5.11857976706907E+01
    PspCore energy  =  7.23854705005047E+00
    Loc. psp. energy= -6.58007839410250E+01
    NL   psp  energy=  1.05675122030344E+01
    >>>>>>>>> Etotal= -6.88285468105323E+01

 Other information on the energy :
    Total energy(eV)= -1.87292000778737E+03 ; Band energy (Ha)=  -9.6689565687E+00
 rms coord change=  6.4836E-03   atom, delta coord (reduced):
     1       -0.000000000000     -0.000000000000      0.000005740877
     2        0.000000000000      0.000000000000     -0.000005740877
     3       -0.009725462425     -0.009725462425      0.000004382730
     4        0.009725462425      0.009725462425      0.000004382730
     5        0.009725462425     -0.009725462425     -0.000004382730
     6       -0.009725462425      0.009725462425     -0.000004382730

 Cartesian components of stress tensor (hartree/bohr^3)
  sigma(1 1)=  2.52720552E-04  sigma(3 2)=  0.00000000E+00
  sigma(2 2)=  2.52720552E-04  sigma(3 1)=  0.00000000E+00
  sigma(3 3)= -5.04897020E-04  sigma(2 1)=  0.00000000E+00

-Cartesian components of stress tensor (GPa)         [Pressure= -5.3358E-03 GPa]
- sigma(1 1)=  7.43529408E+00  sigma(3 2)=  0.00000000E+00
- sigma(2 2)=  7.43529408E+00  sigma(3 1)=  0.00000000E+00
- sigma(3 3)= -1.48545807E+01  sigma(2 1)=  0.00000000E+00

== END DATASET(S) ==============================================================

 -outvars: echo values of variables after computation  --------
            acell      9.8599980772E+00  9.8599980772E+00  6.3505938680E+00 Bohr
              amu      4.78800000E+01  1.59994000E+01
           diemac      1.20000000E+01
          dilatmx      1.20000000E+00
             ecut      8.00000000E+00 Hartree
           ecutsm      5.00000000E-01 Hartree
           etotal     -6.8828546811E+01
            fcart     -2.8234431591E-22 -3.2002477041E-31 -8.9865640236E-07
                      -2.8234431607E-22 -3.2002477041E-31  8.9865640236E-07
                       4.9772703983E-06  4.9772703983E-06  4.6783714475E-08
                      -4.9772703983E-06 -4.9772703983E-06  4.6783714475E-08
                      -4.9772703983E-06  4.9772703983E-06 -4.6783714475E-08
                       4.9772703983E-06 -4.9772703983E-06 -4.6783714475E-08
-          fftalg         112
           getwfk          -1
           ionmov           2
              kpt      0.00000000E+00  2.50000000E-01  0.00000000E+00
                       2.50000000E-01  5.00000000E-01  0.00000000E+00
                       0.00000000E+00  0.00000000E+00  2.50000000E-01
                       0.00000000E+00  5.00000000E-01  2.50000000E-01
                       2.50000000E-01  2.50000000E-01  2.50000000E-01
                       5.00000000E-01  5.00000000E-01  2.50000000E-01
                       0.00000000E+00  2.50000000E-01  5.00000000E-01
                       2.50000000E-01  5.00000000E-01  5.00000000E-01
         kptrlatt        2   -2   -2      2    2   -2      0    0    4
          kptrlen      2.23644000E+01
P           mkmem           8
            natom           6
            nband          17
            ngfft          30      30      18
             nkpt           8
            nstep          10
             nsym           8
            ntime          10
           ntypat           2
              occ      2.000000  2.000000  2.000000  2.000000  2.000000  2.000000
                       2.000000  2.000000  2.000000  2.000000  2.000000  2.000000
                       2.000000  2.000000  2.000000  2.000000  0.000000
          optcell           1
           shiftk     -5.00000000E-01 -5.00000000E-01  1.00000000E+00
          spgroup         113
           strten      2.5272055155E-04  2.5272055155E-04 -5.0489701983E-04
                       0.0000000000E+00  0.0000000000E+00  0.0000000000E+00
           symrel      1  0  0   0  1  0   0  0  1      -1  0  0   0  1  0   0  0 -1
                      -1  0  0   0 -1  0   0  0  1       1  0  0   0 -1  0   0  0 -1
                       0  1  0   1  0  0   0  0  1       0 -1  0   1  0  0   0  0 -1
                       0 -1  0  -1  0  0   0  0  1       0  1  0  -1  0  0   0  0 -1
            tnons      0.0000000  0.0000000  0.0000000     0.5000000  0.5000000 -0.4999911
                       0.0000000  0.0000000  0.0000000     0.5000000  0.5000000 -0.4999911
                       0.0000000  0.0000000  0.0000000     0.5000000  0.5000000 -0.4999911
                       0.0000000  0.0000000  0.0000000     0.5000000  0.5000000 -0.4999911
           toldfe      1.00000000E-04 Hartree
            typat      1  1  2  2  2  2
              wtk        0.12500    0.12500    0.06250    0.12500    0.25000    0.06250
                         0.12500    0.12500
           xangst     -5.5074916335E-19 -9.0043122082E-21  1.9292730745E-05
                       2.6088431296E+00  2.6088431296E+00  1.6803055283E+00
                       1.5667094778E+00  1.5667094778E+00  1.4728555335E-05
                       3.6509767814E+00  3.6509767814E+00  1.4728555335E-05
                       1.0421336518E+00  4.1755526074E+00  1.6803100925E+00
                       4.1755526074E+00  1.0421336518E+00  1.6803100925E+00
            xcart     -1.0407650866E-18 -1.7015684088E-20  3.6457977464E-05
                       4.9299990386E+00  4.9299990386E+00  3.1753172680E+00
                       2.9606518428E+00  2.9606518428E+00  2.7832935916E-05
                       6.8993462344E+00  6.8993462344E+00  2.7832935916E-05
                       1.9693471958E+00  7.8906508814E+00  3.1753258931E+00
                       7.8906508814E+00  1.9693471958E+00  3.1753258931E+00
             xred     -1.0555428901E-19 -1.7257289459E-21  5.7408768725E-06
                       5.0000000000E-01  5.0000000000E-01  5.0000320191E-01
                       3.0026900813E-01  3.0026900813E-01  4.3827296304E-06
                       6.9973099187E-01  6.9973099187E-01  4.3827296304E-06
                       1.9973099187E-01  8.0026900813E-01  5.0000456005E-01
                       8.0026900813E-01  1.9973099187E-01  5.0000456005E-01
            znucl       22.00000    8.00000

-
-  as well as % of the time and number of calls for node 0-
-<BEGIN_TIMER mpi_nprocs = 1, omp_nthreads = 1, mpi_rank = 0>
- cpu_time =           37.6, wall_time =           41.2
-
-                                                                  (-1=no count)
- fourwf%(pot)                  18.750  49.9     20.658  50.1          40959      -1.00        0.91       0.91
- nonlop(apply)                  4.938  13.1      5.177  12.6          40959      -1.00        0.95       0.95
- projbd                         4.438  11.8      4.841  11.7          65326      -1.00        0.92       0.92
- fourwf%(den)                   1.578   4.2      1.625   3.9           5504      -1.00        0.97       0.97
- vtowfk(ssdiag)                 1.562   4.2      1.588   3.9             -1      -1.00        0.98       0.98
- pspini                         1.062   2.8      1.206   2.9              1      -1.00        0.88       0.88
- getghc-other                   0.984   2.6      0.891   2.2             -1      -1.00        1.10       1.10
- nonlop(forstr)                 0.250   0.7      0.328   0.8           1152      -1.00        0.76       0.76
- others (105)                   1.031   2.7      1.181   2.9             -1      -1.00        0.87       0.87
-<END_TIMER>
-
- subtotal                      34.594  92.0     37.495  91.0                                  0.92       0.92

- as well as % of the total time and number of calls

-<BEGIN_TIMER mpi_nprocs = 1, omp_nthreads = 1, mpi_rank = world>
- cpu_time =          37.6, wall_time =          41.2
-
-                                                                  (-1=no count)
- fourwf%(pot)                  18.750  49.9     20.658  50.1          40959      -1.00        0.91       0.91
- nonlop(apply)                  4.938  13.1      5.177  12.6          40959      -1.00        0.95       0.95
- projbd                         4.438  11.8      4.841  11.7          65326      -1.00        0.92       0.92
- fourwf%(den)                   1.578   4.2      1.625   3.9           5504      -1.00        0.97       0.97
- vtowfk(ssdiag)                 1.562   4.2      1.588   3.9             -1      -1.00        0.98       0.98
- pspini                         1.062   2.8      1.206   2.9              1      -1.00        0.88       0.88
- getghc-other                   0.984   2.6      0.891   2.2             -1      -1.00        1.10       1.10
- nonlop(forstr)                 0.250   0.7      0.328   0.8           1152      -1.00        0.76       0.76
- others (105)                   1.031   2.7      1.181   2.9             -1      -1.00        0.87       0.87
-<END_TIMER>

- subtotal                      34.594  92.0     37.495  91.0                                  0.92       0.92

 Suggested references for the acknowledgment of ABINIT usage.

 Calculation completed.
.Delivered   4 WARNINGs and  11 COMMENTs to log file.