.Version 8.6.3 of ABINIT
.(sequential version, prepared for a x86_64_linux_gnu5.4 computer)

 ABINIT is a project of the Universite Catholique de Louvain,
 Corning Inc. and other collaborators, see ~abinit/doc/developers/contributors.txt .
 Please read ~abinit/doc/users/acknowledgments.html for suggested
 acknowledgments of the ABINIT effort.

.Starting date : Sat 21 Apr 2018.
- ( at 13h08 )

 === Build Information ===
  Version       : 8.6.3
  Build target  : x86_64_linux_gnu5.4
  Build date    : 20180412

 === Optimizations ===
  Debug level        : basic
  Optimization level : standard
  Architecture       : unknown_unknown

 === Multicore ===
  Parallel build : no
  Parallel I/O   : no
  openMP support : no
  GPU support    : no

 === Connectors / Fallbacks ===
  Connectors on : yes
  Fallbacks on  : yes
  DFT flavor    : none
  FFT flavor    : none
  LINALG flavor : netlib-fallback
  MATH flavor   : none
  TIMER flavor  : abinit
  TRIO flavor   : none

 === Experimental features ===
  Bindings            : @enable_bindings@
  Exports             : no
  GW double-precision : no

 Default optimizations:
   -O2 -mtune=native -march=native

 Optimizations for 20_datashare:
   -O0

 CPP options activated during the build:

                    CC_GNU                   CXX_GNU                    FC_GNU

 HAVE_FC_ALLOCATABLE_DT...             HAVE_FC_ASYNC         HAVE_FC_BACKTRACE

  HAVE_FC_COMMAND_ARGUMENT      HAVE_FC_COMMAND_LINE        HAVE_FC_CONTIGUOUS

           HAVE_FC_CPUTIME              HAVE_FC_EXIT             HAVE_FC_FLUSH

             HAVE_FC_GAMMA            HAVE_FC_GETENV   HAVE_FC_IEEE_EXCEPTIONS

          HAVE_FC_INT_QUAD             HAVE_FC_IOMSG     HAVE_FC_ISO_C_BINDING

  HAVE_FC_ISO_FORTRAN_2008        HAVE_FC_LONG_LINES        HAVE_FC_MOVE_ALLOC

           HAVE_FC_PRIVATE         HAVE_FC_PROTECTED         HAVE_FC_STREAM_IO

            HAVE_FC_SYSTEM          HAVE_FORTRAN2003        HAVE_LIBPAW_ABINIT

      HAVE_LIBTETRA_ABINIT             HAVE_OS_LINUX         HAVE_TIMER_ABINIT

              USE_MACROAVE

- input  file    -> PdDOSPAW.in
- output file    -> PdDOSPAW.out
- root for input  files -> PdDOSPAW_i
- root for output files -> PdDOSPAW_o

-instrng: 86 lines of input have been read from file PdDOSPAW.in

 Please give name of formatted atomic psp file
 iofn2 : for atom type 1, psp file is ../../../Psps_for_tests/Pd.psp8
  read the values zionpsp= 18.0 , pspcod=   8 , lmax=   2

 inpspheads: deduce mpsang = 3, n1xccc = 2501.
 invars1 : treat image number: 1

 symlatt : the Bravais lattice is cF (face-centered cubic)
  xred   is defined in input file
 ingeo : takes atomic coordinates from input array xred
 symfind : exit, nsym=48
   symrel matrices, symafm and tnons are :
   1       1   0   0     0   1   0     0   0   1       1      0.0000  0.0000  0.0000
   2      -1   0   0     0  -1   0     0   0  -1       1      0.0000  0.0000  0.0000
   3       0  -1   1     0  -1   0     1  -1   0       1      0.0000  0.0000  0.0000
   4       0   1  -1     0   1   0    -1   1   0       1      0.0000  0.0000  0.0000
   5      -1   0   0    -1   0   1    -1   1   0       1      0.0000  0.0000  0.0000
   6       1   0   0     1   0  -1     1  -1   0       1      0.0000  0.0000  0.0000
   7       0   1  -1     1   0  -1     0   0  -1       1      0.0000  0.0000  0.0000
   8       0  -1   1    -1   0   1     0   0   1       1      0.0000  0.0000  0.0000
   9      -1   0   0    -1   1   0    -1   0   1       1      0.0000  0.0000  0.0000
  10       1   0   0     1  -1   0     1   0  -1       1      0.0000  0.0000  0.0000
  11       0  -1   1     1  -1   0     0  -1   0       1      0.0000  0.0000  0.0000
  12       0   1  -1    -1   1   0     0   1   0       1      0.0000  0.0000  0.0000
  13       1   0   0     0   0   1     0   1   0       1      0.0000  0.0000  0.0000
  14      -1   0   0     0   0  -1     0  -1   0       1      0.0000  0.0000  0.0000
  15       0   1  -1     0   0  -1     1   0  -1       1      0.0000  0.0000  0.0000
  16       0  -1   1     0   0   1    -1   0   1       1      0.0000  0.0000  0.0000
  17      -1   0   1    -1   1   0    -1   0   0       1      0.0000  0.0000  0.0000
  18       1   0  -1     1  -1   0     1   0   0       1      0.0000  0.0000  0.0000
  19       0  -1   0     1  -1   0     0  -1   1       1      0.0000  0.0000  0.0000
  20       0   1   0    -1   1   0     0   1  -1       1      0.0000  0.0000  0.0000
  21       1   0  -1     0   0  -1     0   1  -1       1      0.0000  0.0000  0.0000
  22      -1   0   1     0   0   1     0  -1   1       1      0.0000  0.0000  0.0000
  23       0   1   0     0   0   1     1   0   0       1      0.0000  0.0000  0.0000
  24       0  -1   0     0   0  -1    -1   0   0       1      0.0000  0.0000  0.0000
  25       1   0  -1     0   1  -1     0   0  -1       1      0.0000  0.0000  0.0000
  26      -1   0   1     0  -1   1     0   0   1       1      0.0000  0.0000  0.0000
  27       0  -1   0     0  -1   1     1  -1   0       1      0.0000  0.0000  0.0000
  28       0   1   0     0   1  -1    -1   1   0       1      0.0000  0.0000  0.0000
  29      -1   0   1    -1   0   0    -1   1   0       1      0.0000  0.0000  0.0000
  30       1   0  -1     1   0   0     1  -1   0       1      0.0000  0.0000  0.0000
  31       0   1   0     1   0   0     0   0   1       1      0.0000  0.0000  0.0000
  32       0  -1   0    -1   0   0     0   0  -1       1      0.0000  0.0000  0.0000
  33       0   0  -1     0   1  -1     1   0  -1       1      0.0000  0.0000  0.0000
  34       0   0   1     0  -1   1    -1   0   1       1      0.0000  0.0000  0.0000
  35       1  -1   0     0  -1   1     0  -1   0       1      0.0000  0.0000  0.0000
  36      -1   1   0     0   1  -1     0   1   0       1      0.0000  0.0000  0.0000
  37       0   0   1     1   0   0     0   1   0       1      0.0000  0.0000  0.0000
  38       0   0  -1    -1   0   0     0  -1   0       1      0.0000  0.0000  0.0000
  39      -1   1   0    -1   0   0    -1   0   1       1      0.0000  0.0000  0.0000
  40       1  -1   0     1   0   0     1   0  -1       1      0.0000  0.0000  0.0000
  41       0   0   1     0   1   0     1   0   0       1      0.0000  0.0000  0.0000
  42       0   0  -1     0  -1   0    -1   0   0       1      0.0000  0.0000  0.0000
  43       1  -1   0     0  -1   0     0  -1   1       1      0.0000  0.0000  0.0000
  44      -1   1   0     0   1   0     0   1  -1       1      0.0000  0.0000  0.0000
  45       0   0  -1     1   0  -1     0   1  -1       1      0.0000  0.0000  0.0000
  46       0   0   1    -1   0   1     0  -1   1       1      0.0000  0.0000  0.0000
  47      -1   1   0    -1   0   1    -1   0   0       1      0.0000  0.0000  0.0000
  48       1  -1   0     1   0  -1     1   0   0       1      0.0000  0.0000  0.0000

 symlatt : the Bravais lattice is cF (face-centered cubic)

 symlatt : the Bravais lattice is cF (face-centered cubic)
 symspgr : spgroup= 225  Fm -3 m   (=Oh^5)
 symspgr : optical characteristics = isotropic
 ingeo : angdeg(1:3)=   60.00000000   60.00000000   60.00000000
 invars2: take the default value of fband=  1.25000000E-01
 chkneu : initialized the occupation numbers for occopt=    1, spin-unpolarized or antiferromagnetic case :
  2.00  2.00  2.00  2.00  2.00  2.00  2.00  2.00  2.00  0.00
mpi_setup: mkmem  undefined in the input file.Use default mkmem  = nkpt
 mpi_setup: With nkpt_me=2 and mkmem  = 2, ground state wf handled in core.
mpi_setup: mkqmem undefined in the input file.Use default mkqmem = nkpt
 mpi_setup: With nkpt_me=2 and mkqmem = 2, ground state wf handled in core.
mpi_setup: mk1mem undefined in the input file.Use default mk1mem = nkpt
 mpi_setup: With nkpt_me=2 and mk1mem = 2, ground state wf handled in core.
 For input ecut=  8.000000E+00 best grid ngfft=      15      15      15
       max ecut=  9.043369E+00

 ==== FFT mesh ====
  FFT mesh divisions ........................    15   15   15
  Augmented FFT divisions ...................    15   15   15
  FFT algorithm .............................   112
  FFT cache size ............................    16
 getmpw: optimal value of mpw= 108

 Symmetries : space group Fm -3 m (#225); Bravais cF (face-center cubic)

 getdim_nloc : deduce lmnmax  =  18, lnmax  =   6,
                      lmnmaxso=  18, lnmaxso=   6.
     intxc =       0    ionmov =       0      iscf =       7    lmnmax =       6
     lnmax =       6     mgfft =      15  mpssoang =       3    mqgrid =    3001
     natom =       1  nloc_mem =       1    nspden =       1   nspinor =       1
    nsppol =       1      nsym =      48    n1xccc =    2501    ntypat =       1
    occopt =       1   xclevel =       2
-    mband =          10        mffmem =           1         mkmem =           2
       mpw =         108          nfft =        3375          nkpt =           2
  Rough estimation (10% accuracy) of disk space for files :

 The job will continue.
------------- Echo of variables that govern the present computation ------------
-
- outvars: echo of selected default values
-   iomode0 =  0 , fftalg0 =112 , wfoptalg0 =  0
-
- outvars: echo of global parameters not present in the input file
-  max_nthreads =    0
-
 -outvars: echo values of preprocessed input variables --------
            acell      7.3500000000E+00  7.3500000000E+00  7.3500000000E+00 Bohr
              amu      1.06420000E+02
           diemac      1.20000000E+01
             ecut      8.00000000E+00 Hartree
           ecutsm      5.00000000E-01 Hartree
-          fftalg         112
           getwfk          -1
           iatsph        1
              ixc          11
              kpt     -2.50000000E-01  5.00000000E-01  0.00000000E+00
                      -2.50000000E-01  0.00000000E+00  0.00000000E+00
         kptrlatt        2   -2    2     -2    2    2     -2   -2    2
          kptrlen      1.47000000E+01
P           mkmem           2
            natom           1
           natsph        1
            nband          10
            ngfft          15      15      15
             nkpt           2
            nstep          10
             nsym          48
           ntypat           1
              occ      2.000000  2.000000  2.000000  2.000000  2.000000  2.000000
                       2.000000  2.000000  2.000000  0.000000
        pawecutdg      2.40000000E+01 Hartree
        pawprtdos           1
           prtdos           3
           ratsph      1.50000000E+00 Bohr
            rprim      0.0000000000E+00  5.0000000000E-01  5.0000000000E-01
                       5.0000000000E-01  0.0000000000E+00  5.0000000000E-01
                       5.0000000000E-01  5.0000000000E-01  0.0000000000E+00
           shiftk      5.00000000E-01  5.00000000E-01  5.00000000E-01
          spgroup         225
           symrel      1  0  0   0  1  0   0  0  1      -1  0  0   0 -1  0   0  0 -1
                       0 -1  1   0 -1  0   1 -1  0       0  1 -1   0  1  0  -1  1  0
                      -1  0  0  -1  0  1  -1  1  0       1  0  0   1  0 -1   1 -1  0
                       0  1 -1   1  0 -1   0  0 -1       0 -1  1  -1  0  1   0  0  1
[...]
  pspatm : epsatm=   26.09224486
         --- l  ekb(1:nproj) -->
             0    7.845850   -2.282160
             1    3.261104   -0.686948
             2   -1.134855   -0.401224
 pspatm: atomic psp has been read  and splines computed

   4.69660407E+02                                ecore*ucvol(ha*bohr**3)
 ==== Info on pseudopotentials ====
  Norm-conserving pseudopotentials
  Number of pseudopotentials ..    1
  Number of types of atoms   ..    1
  Scalar calculation (no spin-orbit term)
  Nonlocal part applied using Legendre polynomials
  Max number of non-local projectors over l and type   2
  Highest angular momentum +1 .......   3
  Max number of (l,n)   components ..   6
  Max number of (l,m,n) components ..   6

 Pseudo-Core Charge Info:
   Number of radial points for pseudo-core charge .. 2501
   XC core-correction treatment (optnlxccc) ........    1
   Radius for pseudo-core charge for each type .....

  - Atom type    1 has pseudo-core radius ..  5.9900

 Info on the Q-grid used for form factors in spline form:
   Number of q-points for radial functions ffspl ..   3001
   Number of q-points for vlspl ...................   3001
   vloc is computed in Reciprocal Space
   model core charge treated in real-space

  XC functional for type 1 is 11
  Pseudo valence available: yes

 wfconv:    10 bands initialized randomly with npw=   108, for ikpt=     1
 wfconv:    10 bands initialized randomly with npw=   107, for ikpt=     2
_setup2: Arith. and geom. avg. npw (full set) are     107.750     107.749
 initro: for itypat=  1, take pseudo charge density from pp file

 getcut: wavevector=  0.0000  0.0000  0.0000  ngfft=  15  15  15
         ecut(hartree)=      8.000   => boxcut(ratio)=   2.12643

 ITER STEP NUMBER     1
 vtorho : nnsclo_now=2, note that nnsclo,dbl_nnsclo,istep=0 0 1
 non-scf iterations; kpt #     1  , k= ( -0.25000  0.50000  0.00000  ), band residuals:
 res:  1.47E+00  9.31E-01  1.02E+00  8.54E-01  8.44E-01  6.80E-01  8.12E-01  5.81E-01
 res:  6.23E-01  3.57E-01
 ene: -2.24E+00 -1.06E+00 -9.63E-01 -8.74E-01  4.88E-01  5.88E-01  6.93E-01  8.50E-01
 ene:  9.69E-01  1.13E+00
 res:  4.73E-03  2.30E-03  6.13E-03  1.18E-02  1.05E-03  4.89E-03  2.80E-03  1.10E-02
 res:  6.81E-03  2.07E-02
 ene: -2.33E+00 -1.12E+00 -1.09E+00 -1.08E+00  4.56E-01  5.29E-01  6.07E-01  7.54E-01
 ene:  9.04E-01  9.37E-01
 vtowfk : number of one-way 3D ffts skipped in vtowfk until now =1
     eigenvalues (hartree) for   10  bands
              after    3 non-SCF iterations with    4 CG line minimizations
 -2.3252E+00 -1.1177E+00 -1.0934E+00 -1.0842E+00  4.5574E-01  5.2898E-01
  6.0677E-01  7.5408E-01  9.0444E-01  9.3690E-01
 non-scf iterations; kpt #     2  , k= ( -0.25000  0.00000  0.00000  ), band residuals:
 res:  1.55E+00  1.33E+00  1.26E+00  1.11E+00  9.91E-01  5.95E-01  5.67E-01  4.16E-01
 res:  5.10E-01  4.49E-01
 ene: -2.26E+00 -9.72E-01 -9.40E-01 -8.06E-01  3.79E-01  6.54E-01  7.37E-01  8.26E-01
 ene:  9.11E-01  1.05E+00
 res:  3.00E-03  6.48E-03  5.57E-03  1.53E-02  4.87E-03  3.91E-03  7.07E-03  1.16E-02
 res:  4.80E-03  8.33E-03
 ene: -2.33E+00 -1.08E+00 -1.08E+00 -1.07E+00  3.27E-01  6.06E-01  6.80E-01  6.81E-01
 ene:  8.16E-01  8.17E-01
 vtowfk : number of one-way 3D ffts skipped in vtowfk until now =2
     eigenvalues (hartree) for   10  bands
              after    3 non-SCF iterations with    4 CG line minimizations
 -2.3288E+00 -1.0825E+00 -1.0819E+00 -1.0748E+00  3.2669E-01  6.0581E-01
  6.8033E-01  6.8118E-01  8.1603E-01  8.1675E-01
 Total charge density [el/Bohr^3]
      Maximum=    1.0090E+00  at reduced coord.    0.0000    0.1333    0.8667
      Minimum=    4.3510E-02  at reduced coord.    0.5333    0.4667    0.4667
   Integrated=    1.8000E+01
 ETOT  1  -128.74732545176    -1.287E+02 2.074E-02 8.831E+02
 scprqt: <Vxc>= -5.7184381E-01 hartree

Simple mixing update:
  residual square of the potential :   520.93601552754410
 scfcv: previous iteration took 00 [s]

 ITER STEP NUMBER     2
 vtorho : nnsclo_now=2, note that nnsclo,dbl_nnsclo,istep=0 0 2
 non-scf iterations; kpt #     1  , k= ( -0.25000  0.50000  0.00000  ), band residuals:
 res:  5.31E-02  9.30E-02  2.02E-02  7.98E-03  6.24E-02  4.24E-02  3.90E-02  4.75E-03
 res:  7.15E-02  2.41E-02
 ene: -3.55E+00 -2.09E+00 -2.06E+00 -2.06E+00  2.52E-01  3.03E-01  3.58E-01  3.89E-01
 ene:  4.38E-01  6.30E-01
 res:  3.89E-05  7.67E-05  2.40E-05  2.69E-05  2.23E-05  2.22E-04  1.41E-04  1.29E-06
 res:  5.46E-05  5.68E-04
 ene: -3.55E+00 -2.09E+00 -2.07E+00 -2.06E+00  2.50E-01  2.92E-01  3.55E-01  3.89E-01
 ene:  4.37E-01  6.06E-01
 vtowfk : number of one-way 3D ffts skipped in vtowfk until now =3
     eigenvalues (hartree) for   10  bands
              after    3 non-SCF iterations with    4 CG line minimizations
 -3.5534E+00 -2.0907E+00 -2.0654E+00 -2.0567E+00  2.5045E-01  2.9205E-01
  3.5461E-01  3.8918E-01  4.3665E-01  6.0558E-01
 non-scf iterations; kpt #     2  , k= ( -0.25000  0.00000  0.00000  ), band residuals:
 res:  7.67E-02  3.03E-03  2.93E-03  3.53E-02  9.44E-02  1.41E-02  1.52E-03  1.56E-03
 res:  2.12E-03  2.00E-03
 ene: -3.56E+00 -2.06E+00 -2.06E+00 -2.03E+00  2.47E-01  3.22E-01  3.23E-01  3.63E-01
 ene:  4.22E-01  4.23E-01
 res:  1.36E-05  2.95E-06  3.40E-06  7.56E-06  2.62E-06  1.88E-08  1.82E-08  2.77E-06
 res:  1.43E-07  1.46E-07
 ene: -3.56E+00 -2.06E+00 -2.06E+00 -2.03E+00  2.47E-01  3.22E-01  3.23E-01  3.63E-01
 ene:  4.22E-01  4.23E-01
 vtowfk : number of one-way 3D ffts skipped in vtowfk until now =4
     eigenvalues (hartree) for   10  bands
              after    3 non-SCF iterations with    4 CG line minimizations
 -3.5555E+00 -2.0591E+00 -2.0590E+00 -2.0297E+00  2.4666E-01  3.2210E-01
  3.2288E-01  3.6285E-01  4.2229E-01  4.2259E-01
 Total charge density [el/Bohr^3]
      Maximum=    1.2164E+00  at reduced coord.    0.1333    0.8667    0.9333
      Minimum=    1.1048E-02  at reduced coord.    0.5333    0.4667    0.4667
   Integrated=    1.8000E+01
 ETOT  2  -129.94330794532    -1.196E+00 5.679E-04 1.601E+02
 scprqt: <Vxc>= -4.9852893E-01 hartree

 Pulay update with  1 previous iterations:
 mixing of old trial potential : alpha(m:m-4)=  0.705      0.295
 scfcv: previous iteration took 00 [s]

 ITER STEP NUMBER     3
 vtorho : nnsclo_now=1, note that nnsclo,dbl_nnsclo,istep=0 0 3
 non-scf iterations; kpt #     1  , k= ( -0.25000  0.50000  0.00000  ), band residuals:
 res:  2.10E-03  1.68E-03  3.43E-04  1.14E-04  1.46E-03  1.21E-03  3.71E-03  5.28E-05
 res:  1.26E-05  8.27E-03
 ene: -3.16E+00 -1.75E+00 -1.73E+00 -1.72E+00  3.98E-01  4.44E-01  5.13E-01  5.74E-01
 ene:  6.49E-01  7.37E-01
 vtowfk : number of one-way 3D ffts skipped in vtowfk until now =5
     eigenvalues (hartree) for   10  bands
              after    2 non-SCF iterations with    4 CG line minimizations
 -3.1637E+00 -1.7513E+00 -1.7269E+00 -1.7187E+00  3.9761E-01  4.4435E-01
  5.1297E-01  5.7422E-01  6.4858E-01  7.3681E-01
 non-scf iterations; kpt #     2  , k= ( -0.25000  0.00000  0.00000  ), band residuals:
 res:  2.97E-03  4.98E-05  4.99E-05  7.45E-04  4.89E-03  6.17E-05  6.27E-05  4.53E-03
 res:  1.18E-04  1.20E-04
 ene: -3.17E+00 -1.72E+00 -1.72E+00 -1.70E+00  3.34E-01  5.01E-01  5.05E-01  5.06E-01
 ene:  6.13E-01  6.13E-01
 vtowfk : number of one-way 3D ffts skipped in vtowfk until now =6
     eigenvalues (hartree) for   10  bands
              after    2 non-SCF iterations with    4 CG line minimizations
 -3.1659E+00 -1.7203E+00 -1.7200E+00 -1.6955E+00  3.3406E-01  5.0073E-01
  5.0534E-01  5.0563E-01  6.1266E-01  6.1334E-01
 Total charge density [el/Bohr^3]
      Maximum=    1.1606E+00  at reduced coord.    0.1333    0.8667    0.9333
      Minimum=    1.9606E-02  at reduced coord.    0.5333    0.4667    0.4667
   Integrated=    1.8000E+01
 ETOT  3  -130.18285977016    -2.396E-01 8.275E-03 9.637E-01
 scprqt: <Vxc>= -5.2516126E-01 hartree

[...]

 Pulay update with  5 previous iterations:
 mixing of old trial potential : alpha(m:m-4)=   1.00      0.491E-03 -0.664E-02  0.213E-02 -0.311E-04
 scfcv: previous iteration took 00 [s]

 ITER STEP NUMBER     7
 vtorho : nnsclo_now=1, note that nnsclo,dbl_nnsclo,istep=0 0 7
 non-scf iterations; kpt #     1  , k= ( -0.25000  0.50000  0.00000  ), band residuals:
 res:  4.16E-12  1.72E-12  1.58E-12  2.67E-12  2.31E-12  3.09E-12  4.82E-12  5.55E-12
 res:  7.88E-12  1.37E-10
 ene: -3.18E+00 -1.77E+00 -1.75E+00 -1.74E+00  3.73E-01  4.19E-01  4.89E-01  5.52E-01
 ene:  6.27E-01  7.13E-01
 vtowfk : number of one-way 3D ffts skipped in vtowfk until now =13
     eigenvalues (hartree) for   10  bands
              after    2 non-SCF iterations with    4 CG line minimizations
 -3.1827E+00 -1.7715E+00 -1.7470E+00 -1.7388E+00  3.7309E-01  4.1945E-01
  4.8909E-01  5.5191E-01  6.2741E-01  7.1261E-01
 non-scf iterations; kpt #     2  , k= ( -0.25000  0.00000  0.00000  ), band residuals:
 res:  4.42E-12  1.05E-13  1.29E-12  1.40E-12  6.39E-12  2.93E-12  8.64E-12  1.12E-12
 res:  1.14E-12  4.49E-12
 ene: -3.18E+00 -1.74E+00 -1.74E+00 -1.72E+00  3.07E-01  4.77E-01  4.83E-01  4.84E-01
 ene:  5.91E-01  5.92E-01
 vtowfk : number of one-way 3D ffts skipped in vtowfk until now =14
     eigenvalues (hartree) for   10  bands
              after    2 non-SCF iterations with    4 CG line minimizations
 -3.1849E+00 -1.7404E+00 -1.7402E+00 -1.7157E+00  3.0672E-01  4.7680E-01
  4.8299E-01  4.8354E-01  5.9081E-01  5.9156E-01
 Total charge density [el/Bohr^3]
      Maximum=    1.1593E+00  at reduced coord.    0.0000    0.1333    0.8667
      Minimum=    2.0292E-02  at reduced coord.    0.5333    0.4667    0.4667
   Integrated=    1.8000E+01
 ETOT  7  -130.18363709621     5.379E-08 1.369E-10 9.252E-09
 scprqt: <Vxc>= -5.2626579E-01 hartree

 At SCF step    7, etot is converged :
  for the second time, diff in etot=  5.379E-08 < toldfe=  1.000E-06

 Cartesian components of stress tensor (hartree/bohr^3)
  sigma(1 1)= -1.35131313E-02  sigma(3 2)=  0.00000000E+00
  sigma(2 2)= -1.35131313E-02  sigma(3 1)=  0.00000000E+00
  sigma(3 3)= -1.35131313E-02  sigma(2 1)=  0.00000000E+00

 fftdatar_write: About to write data to: PdDOSPAW_o_DEN with iomode IO_MODE_FORTRAN
 tetrahedron : integrate to  1.18589512E+01

 ----iterations are completed or convergence reached----

 Mean square residual over all n,k,spin=   1.0128E-11; max=  1.3686E-10
  -0.2500  0.5000  0.0000    1  1.36857E-10 kpt; spin; max resid(k); each band:
  4.16E-12 1.72E-12 1.58E-12 2.67E-12 2.31E-12 3.09E-12 4.82E-12 5.55E-12
  7.88E-12 1.37E-10
  -0.2500  0.0000  0.0000    1  8.63541E-12 kpt; spin; max resid(k); each band:
  4.42E-12 1.05E-13 1.29E-12 1.40E-12 6.39E-12 2.93E-12 8.64E-12 1.12E-12
  1.14E-12 4.49E-12

 outwf: write wavefunction to file PdDOSPAW_o_WFK, with iomode -1
 prteigrs : about to open file PdDOSPAW_o_EIG
 Fermi (or HOMO) energy (hartree) =   0.62741   Average Vxc (hartree)=  -0.52627
 Eigenvalues (hartree) for nkpt=   2  k points:
 kpt#   1, nband= 10, wtk=  0.75000, kpt= -0.2500  0.5000  0.0000 (reduced coord)
  -3.18269   -1.77145   -1.74702   -1.73884    0.37309    0.41945    0.48909    0.55191
   0.62741    0.71261
 kpt#   2, nband= 10, wtk=  0.25000, kpt= -0.2500  0.0000  0.0000 (reduced coord)
  -3.18493   -1.74039   -1.74018   -1.71567    0.30672    0.47680    0.48299    0.48354
   0.59081    0.59156
 Total charge density [el/Bohr^3]
      Maximum=    1.1593E+00  at reduced coord.    0.0000    0.1333    0.8667
 Next maximum=    1.1593E+00  at reduced coord.    0.1333    0.0000    0.8667
      Minimum=    2.0292E-02  at reduced coord.    0.5333    0.4667    0.4667
 Next minimum=    2.0292E-02  at reduced coord.    0.4667    0.5333    0.4667
   Integrated=    1.8000E+01

 Cartesian components of stress tensor (hartree/bohr^3)
  sigma(1 1)= -1.35131313E-02  sigma(3 2)=  0.00000000E+00
  sigma(2 2)= -1.35131313E-02  sigma(3 1)=  0.00000000E+00
  sigma(3 3)= -1.35131313E-02  sigma(2 1)=  0.00000000E+00

-Cartesian components of stress tensor (GPa)         [Pressure=  3.9757E+02 GPa]
- sigma(1 1)= -3.97569983E+02  sigma(3 2)=  0.00000000E+00
- sigma(2 2)= -3.97569983E+02  sigma(3 1)=  0.00000000E+00
- sigma(3 3)= -3.97569983E+02  sigma(2 1)=  0.00000000E+00

== END DATASET(S) ==============================================================

 -outvars: echo values of variables after computation  --------
            acell      7.3500000000E+00  7.3500000000E+00  7.3500000000E+00 Bohr
              amu      1.06420000E+02
           diemac      1.20000000E+01
             ecut      8.00000000E+00 Hartree
           ecutsm      5.00000000E-01 Hartree
           etotal     -1.3018363710E+02
            fcart     -0.0000000000E+00 -0.0000000000E+00 -0.0000000000E+00
-          fftalg         112
           getwfk          -1
           iatsph        1
              ixc          11
              kpt     -2.50000000E-01  5.00000000E-01  0.00000000E+00
                      -2.50000000E-01  0.00000000E+00  0.00000000E+00
         kptrlatt        2   -2    2     -2    2    2     -2   -2    2
          kptrlen      1.47000000E+01
P           mkmem           2
            natom           1
           natsph        1
            nband          10
            ngfft          15      15      15
             nkpt           2
            nstep          10
             nsym          48
           ntypat           1
              occ      2.000000  2.000000  2.000000  2.000000  2.000000  2.000000
                       2.000000  2.000000  2.000000  0.000000
        pawecutdg      2.40000000E+01 Hartree
        pawprtdos           1
           prtdos           3
           ratsph      1.50000000E+00 Bohr
            rprim      0.0000000000E+00  5.0000000000E-01  5.0000000000E-01
                       5.0000000000E-01  0.0000000000E+00  5.0000000000E-01
                       5.0000000000E-01  5.0000000000E-01  0.0000000000E+00
           shiftk      5.00000000E-01  5.00000000E-01  5.00000000E-01
          spgroup         225
           strten     -1.3513131321E-02 -1.3513131321E-02 -1.3513131321E-02
                       0.0000000000E+00  0.0000000000E+00  0.0000000000E+00
           symrel      1  0  0   0  1  0   0  0  1      -1  0  0   0 -1  0   0  0 -1
                       0 -1  1   0 -1  0   1 -1  0       0  1 -1   0  1  0  -1  1  0
                      -1  0  0  -1  0  1  -1  1  0       1  0  0   1  0 -1   1 -1  0
                       0  1 -1   1  0 -1   0  0 -1       0 -1  1  -1  0  1   0  0  1
                      -1  0  0  -1  1  0  -1  0  1       1  0  0   1 -1  0   1  0 -1
                       0 -1  1   1 -1  0   0 -1  0       0  1 -1  -1  1  0   0  1  0
                       1  0  0   0  0  1   0  1  0      -1  0  0   0  0 -1   0 -1  0
                       0  1 -1   0  0 -1   1  0 -1       0 -1  1   0  0  1  -1  0  1
                      -1  0  1  -1  1  0  -1  0  0       1  0 -1   1 -1  0   1  0  0
                       0 -1  0   1 -1  0   0 -1  1       0  1  0  -1  1  0   0  1 -1
                       1  0 -1   0  0 -1   0  1 -1      -1  0  1   0  0  1   0 -1  1
                       0  1  0   0  0  1   1  0  0       0 -1  0   0  0 -1  -1  0  0
                       1  0 -1   0  1 -1   0  0 -1      -1  0  1   0 -1  1   0  0  1
                       0 -1  0   0 -1  1   1 -1  0       0  1  0   0  1 -1  -1  1  0
                      -1  0  1  -1  0  0  -1  1  0       1  0 -1   1  0  0   1 -1  0
                       0  1  0   1  0  0   0  0  1       0 -1  0  -1  0  0   0  0 -1
                       0  0 -1   0  1 -1   1  0 -1       0  0  1   0 -1  1  -1  0  1
                       1 -1  0   0 -1  1   0 -1  0      -1  1  0   0  1 -1   0  1  0
                       0  0  1   1  0  0   0  1  0       0  0 -1  -1  0  0   0 -1  0
                      -1  1  0  -1  0  0  -1  0  1       1 -1  0   1  0  0   1  0 -1
                       0  0  1   0  1  0   1  0  0       0  0 -1   0 -1  0  -1  0  0
                       1 -1  0   0 -1  0   0 -1  1      -1  1  0   0  1  0   0  1 -1
                       0  0 -1   1  0 -1   0  1 -1       0  0  1  -1  0  1   0 -1  1
                      -1  1  0  -1  0  1  -1  0  0       1 -1  0   1  0 -1   1  0  0
           toldfe      1.00000000E-06 Hartree
            typat      1
              wtk        0.75000    0.25000
            znucl       46.00000

 Suggested references for the acknowledgment of ABINIT usage.

 Calculation completed.
.Delivered   0 WARNINGs and   0 COMMENTs to log file.

--- !FinalSummary
program: abinit
version: 8.6.3
start_datetime: Sat Apr 21 13:08:28 2018
end_datetime: Sat Apr 21 13:08:29 2018
overall_cpu_time:           0.8
overall_wall_time:           1.1
exit_requested_by_user: no
timelimit: 0
pseudos:
    Pd  : 4144628137bc01fa80f914e5e2c5b797
usepaw: 0
mpi_procs: 1
omp_threads: 1
num_warnings: 0
num_comments: 0
...