.Version 8.6.3 of ABINIT
.(sequential version, prepared for a x86_64_linux_gnu5.4 computer)

 ABINIT is a project of the Universite Catholique de Louvain,
 Corning Inc. and other collaborators, see ~abinit/doc/developers/contributors.txt .
 Please read ~abinit/doc/users/acknowledgments.html for suggested
 acknowledgments of the ABINIT effort.

.Starting date : Mon 23 Apr 2018.
- ( at 08h44 )

 === Build Information ===
  Version       : 8.6.3
  Build target  : x86_64_linux_gnu5.4
  Build date    : 20180412

 === Optimizations ===
  Debug level        : basic
  Optimization level : standard
  Architecture       : unknown_unknown

 === Multicore ===
  Parallel build : no
  Parallel I/O   : no
  openMP support : no
  GPU support    : no

 === Connectors / Fallbacks ===
  Connectors on : yes
  Fallbacks on  : yes
  DFT flavor    : none
  FFT flavor    : none
  LINALG flavor : netlib-fallback
  MATH flavor   : none
  TIMER flavor  : abinit
  TRIO flavor   : none

 === Experimental features ===
  Bindings            : @enable_bindings@
  Exports             : no
  GW double-precision : no

 Default optimizations:
   -O2 -mtune=native -march=native

 Optimizations for 20_datashare:
   -O0

 CPP options activated during the build:

                    CC_GNU                   CXX_GNU                    FC_GNU

 HAVE_FC_ALLOCATABLE_DT...             HAVE_FC_ASYNC         HAVE_FC_BACKTRACE

  HAVE_FC_COMMAND_ARGUMENT      HAVE_FC_COMMAND_LINE        HAVE_FC_CONTIGUOUS

           HAVE_FC_CPUTIME              HAVE_FC_EXIT             HAVE_FC_FLUSH

             HAVE_FC_GAMMA            HAVE_FC_GETENV   HAVE_FC_IEEE_EXCEPTIONS

          HAVE_FC_INT_QUAD             HAVE_FC_IOMSG     HAVE_FC_ISO_C_BINDING

  HAVE_FC_ISO_FORTRAN_2008        HAVE_FC_LONG_LINES        HAVE_FC_MOVE_ALLOC

           HAVE_FC_PRIVATE         HAVE_FC_PROTECTED         HAVE_FC_STREAM_IO

            HAVE_FC_SYSTEM          HAVE_FORTRAN2003        HAVE_LIBPAW_ABINIT

      HAVE_LIBTETRA_ABINIT             HAVE_OS_LINUX         HAVE_TIMER_ABINIT

              USE_MACROAVE

- input  file    -> PdGeomOpt.in
- output file    -> PdGeomOpt.out
- root for input  files -> PdGeomOpt_i
- root for output files -> PdGeomOpt_o

-instrng: 89 lines of input have been read from file PdGeomOpt.in

 Please give name of formatted atomic psp file
 iofn2 : for atom type 1, psp file is ../../../Psps_for_tests/Pd.psp8
  read the values zionpsp= 18.0 , pspcod=   8 , lmax=   2

 inpspheads: deduce mpsang = 3, n1xccc = 2501.
 invars1 : treat image number: 1

 symlatt : the Bravais lattice is cF (face-centered cubic)
  xred   is defined in input file
 ingeo : takes atomic coordinates from input array xred
 symfind : exit, nsym=48
   symrel matrices, symafm and tnons are :
   1       1   0   0     0   1   0     0   0   1       1      0.0000  0.0000  0.0000
   2      -1   0   0     0  -1   0     0   0  -1       1      0.0000  0.0000  0.0000
   3       0  -1   1     0  -1   0     1  -1   0       1      0.0000  0.0000  0.0000
   4       0   1  -1     0   1   0    -1   1   0       1      0.0000  0.0000  0.0000
   5      -1   0   0    -1   0   1    -1   1   0       1      0.0000  0.0000  0.0000
   6       1   0   0     1   0  -1     1  -1   0       1      0.0000  0.0000  0.0000
   7       0   1  -1     1   0  -1     0   0  -1       1      0.0000  0.0000  0.0000
   8       0  -1   1    -1   0   1     0   0   1       1      0.0000  0.0000  0.0000
   9      -1   0   0    -1   1   0    -1   0   1       1      0.0000  0.0000  0.0000
  10       1   0   0     1  -1   0     1   0  -1       1      0.0000  0.0000  0.0000
  11       0  -1   1     1  -1   0     0  -1   0       1      0.0000  0.0000  0.0000
  12       0   1  -1    -1   1   0     0   1   0       1      0.0000  0.0000  0.0000
  13       1   0   0     0   0   1     0   1   0       1      0.0000  0.0000  0.0000
  14      -1   0   0     0   0  -1     0  -1   0       1      0.0000  0.0000  0.0000
  15       0   1  -1     0   0  -1     1   0  -1       1      0.0000  0.0000  0.0000
  16       0  -1   1     0   0   1    -1   0   1       1      0.0000  0.0000  0.0000
  17      -1   0   1    -1   1   0    -1   0   0       1      0.0000  0.0000  0.0000
  18       1   0  -1     1  -1   0     1   0   0       1      0.0000  0.0000  0.0000
  19       0  -1   0     1  -1   0     0  -1   1       1      0.0000  0.0000  0.0000
  20       0   1   0    -1   1   0     0   1  -1       1      0.0000  0.0000  0.0000
  21       1   0  -1     0   0  -1     0   1  -1       1      0.0000  0.0000  0.0000
  22      -1   0   1     0   0   1     0  -1   1       1      0.0000  0.0000  0.0000
  23       0   1   0     0   0   1     1   0   0       1      0.0000  0.0000  0.0000
  24       0  -1   0     0   0  -1    -1   0   0       1      0.0000  0.0000  0.0000
  25       1   0  -1     0   1  -1     0   0  -1       1      0.0000  0.0000  0.0000
  26      -1   0   1     0  -1   1     0   0   1       1      0.0000  0.0000  0.0000
  27       0  -1   0     0  -1   1     1  -1   0       1      0.0000  0.0000  0.0000
  28       0   1   0     0   1  -1    -1   1   0       1      0.0000  0.0000  0.0000
  29      -1   0   1    -1   0   0    -1   1   0       1      0.0000  0.0000  0.0000
  30       1   0  -1     1   0   0     1  -1   0       1      0.0000  0.0000  0.0000
  31       0   1   0     1   0   0     0   0   1       1      0.0000  0.0000  0.0000
  32       0  -1   0    -1   0   0     0   0  -1       1      0.0000  0.0000  0.0000
  33       0   0  -1     0   1  -1     1   0  -1       1      0.0000  0.0000  0.0000
  34       0   0   1     0  -1   1    -1   0   1       1      0.0000  0.0000  0.0000
  35       1  -1   0     0  -1   1     0  -1   0       1      0.0000  0.0000  0.0000
  36      -1   1   0     0   1  -1     0   1   0       1      0.0000  0.0000  0.0000
  37       0   0   1     1   0   0     0   1   0       1      0.0000  0.0000  0.0000
  38       0   0  -1    -1   0   0     0  -1   0       1      0.0000  0.0000  0.0000
  39      -1   1   0    -1   0   0    -1   0   1       1      0.0000  0.0000  0.0000
  40       1  -1   0     1   0   0     1   0  -1       1      0.0000  0.0000  0.0000
  41       0   0   1     0   1   0     1   0   0       1      0.0000  0.0000  0.0000
  42       0   0  -1     0  -1   0    -1   0   0       1      0.0000  0.0000  0.0000
  43       1  -1   0     0  -1   0     0  -1   1       1      0.0000  0.0000  0.0000
  44      -1   1   0     0   1   0     0   1  -1       1      0.0000  0.0000  0.0000
  45       0   0  -1     1   0  -1     0   1  -1       1      0.0000  0.0000  0.0000
  46       0   0   1    -1   0   1     0  -1   1       1      0.0000  0.0000  0.0000
  47      -1   1   0    -1   0   1    -1   0   0       1      0.0000  0.0000  0.0000
  48       1  -1   0     1   0  -1     1   0   0       1      0.0000  0.0000  0.0000

 symlatt : the Bravais lattice is cF (face-centered cubic)

 symlatt : the Bravais lattice is cF (face-centered cubic)
 symspgr : spgroup= 225  Fm -3 m   (=Oh^5)
 symspgr : optical characteristics = isotropic
 ingeo : angdeg(1:3)=   60.00000000   60.00000000   60.00000000
 invars2: take the default value of fband=  1.25000000E-01
 chkneu : initialized the occupation numbers for occopt=    1, spin-unpolarized or antiferromagnetic case :
  2.00  2.00  2.00  2.00  2.00  2.00  2.00  2.00  2.00  0.00
mpi_setup: mkmem  undefined in the input file.Use default mkmem  = nkpt
 mpi_setup: With nkpt_me=2 and mkmem  = 2, ground state wf handled in core.
mpi_setup: mkqmem undefined in the input file.Use default mkqmem = nkpt
 mpi_setup: With nkpt_me=2 and mkqmem = 2, ground state wf handled in core.
mpi_setup: mk1mem undefined in the input file.Use default mk1mem = nkpt
 mpi_setup: With nkpt_me=2 and mk1mem = 2, ground state wf handled in core.
 For input ecut=  2.205000E+01 best grid ngfft=      24      24      24
       max ecut=  2.630798E+01

 ==== FFT mesh ====
  FFT mesh divisions ........................    24   24   24
  Augmented FFT divisions ...................    25   25   24
  FFT algorithm .............................   112
  FFT cache size ............................    16
 getmpw: optimal value of mpw= 492

 Symmetries : space group Fm -3 m (#225); Bravais cF (face-center cubic)

 getdim_nloc : deduce lmnmax  =  18, lnmax  =   6,
                      lmnmaxso=  18, lnmaxso=   6.
     intxc =       0    ionmov =       2      iscf =       7    lmnmax =       6
     lnmax =       6     mgfft =      24  mpssoang =       3    mqgrid =    3001
     natom =       1  nloc_mem =       1    nspden =       1   nspinor =       1
    nsppol =       1      nsym =      48    n1xccc =    2501    ntypat =       1
    occopt =       1   xclevel =       2
-    mband =          10        mffmem =           1         mkmem =           2
       mpw =         492          nfft =       13824          nkpt =           2
  Rough estimation (10% accuracy) of disk space for files :

 The job will continue.
------------- Echo of variables that govern the present computation ------------
-
- outvars: echo of selected default values
-   iomode0 =  0 , fftalg0 =112 , wfoptalg0 =  0
-
- outvars: echo of global parameters not present in the input file
-  max_nthreads =    0
-
 -outvars: echo values of preprocessed input variables --------
            acell      7.3500000000E+00  7.3500000000E+00  7.3500000000E+00 Bohr
              amu      1.06420000E+02
           diemac      1.20000000E+01
          dilatmx      1.05000000E+00
             ecut      2.00000000E+01 Hartree
           ecutsm      5.00000000E-01 Hartree
-          fftalg         112
           getwfk          -1
           ionmov           2
              ixc          11
              kpt     -2.50000000E-01  5.00000000E-01  0.00000000E+00
                      -2.50000000E-01  0.00000000E+00  0.00000000E+00
         kptrlatt        2   -2    2     -2    2    2     -2   -2    2
          kptrlen      1.47000000E+01
P           mkmem           2
            natom           1
            nband          10
            ngfft          24      24      24
             nkpt           2
            nstep          20
             nsym          48
            ntime          10
           ntypat           1
              occ      2.000000  2.000000  2.000000  2.000000  2.000000  2.000000
                       2.000000  2.000000  2.000000  0.000000
          optcell           1
            rprim      0.0000000000E+00  5.0000000000E-01  5.0000000000E-01
                       5.0000000000E-01  0.0000000000E+00  5.0000000000E-01
                       5.0000000000E-01  5.0000000000E-01  0.0000000000E+00
           shiftk      5.00000000E-01  5.00000000E-01  5.00000000E-01
          spgroup         225
           symrel      1  0  0   0  1  0   0  0  1      -1  0  0   0 -1  0   0  0 -1
                       0 -1  1   0 -1  0   1 -1  0       0  1 -1   0  1  0  -1  1  0
                      -1  0  0  -1  0  1  -1  1  0       1  0  0   1  0 -1   1 -1  0
                       0  1 -1   1  0 -1   0  0 -1       0 -1  1  -1  0  1   0  0  1
                      -1  0  0  -1  1  0  -1  0  1       1  0  0   1 -1  0   1  0 -1
[...]
  0.00000000000000E+00  0.00000000000000E+00  7.25475190297052E-04
 Total energy (etotal) [Ha]= -1.35244141828193E+02
 fconv : at Broyd/MD step   1, gradients have not converged yet.
  max grad (force/stress) = 7.2548E-02 > tolmxf= 5.0000E-05 ha/bohr (free atoms)

 Geometry Optimization Precondition:           0
Inverse hessian has been initialized.
 EXIT:           1           1
 mover: previous time step took 00 [s]

[...]

 Cartesian coordinates (xcart) [bohr]
  0.00000000000000E+00  0.00000000000000E+00  0.00000000000000E+00
 Reduced coordinates (xred)
  0.00000000000000E+00  0.00000000000000E+00  0.00000000000000E+00
 Cartesian forces (fcart) [Ha/bohr]; max,rms= 0.00000E+00 0.00000E+00 (free atoms)
 -0.00000000000000E+00 -0.00000000000000E+00 -0.00000000000000E+00
 Reduced forces (fred)
  0.00000000000000E+00  0.00000000000000E+00  0.00000000000000E+00
 Scale of Primitive Cell (acell) [bohr]
  7.19003272053950E+00  7.19003272053950E+00  7.19003272053950E+00
 Real space primitive translations (rprimd) [bohr]
  0.00000000000000E+00  3.59501636026975E+00  3.59501636026975E+00
  3.59501636026975E+00  0.00000000000000E+00  3.59501636026975E+00
  3.59501636026975E+00  3.59501636026975E+00  0.00000000000000E+00
 Unitary Cell Volume (ucvol) [Bohr^3]=  9.29250083989850E+01
 Angles (23,13,12)= [degrees]
  6.00000000000000E+01  6.00000000000000E+01  6.00000000000000E+01
 Lengths [Bohr]
  5.08412089364664E+00  5.08412089364664E+00  5.08412089364664E+00
 Stress tensor in cartesian coordinates (strten) [Ha/bohr^3]
 -5.88406194106030E-04  0.00000000000000E+00  0.00000000000000E+00
  0.00000000000000E+00 -5.88406194106043E-04  0.00000000000000E+00
  0.00000000000000E+00  0.00000000000000E+00 -5.88406194106036E-04
 Total energy (etotal) [Ha]= -1.35242410771107E+02

 Difference of energy with previous step (new-old):
           Absolute (Ha)= 1.73106E-03
           Relative     = 1.27996E-05
 fconv : at Broyd/MD step   2, gradients have not converged yet.
  max grad (force/stress) = 5.8841E-02 > tolmxf= 5.0000E-05 ha/bohr (free atoms)

 Geometry Optimization Precondition:           0
 EXIT:           1           1
 mover: previous time step took 00 [s]

[...]

 Difference of energy with previous step (new-old):
           Absolute (Ha)=-3.62402E-03
           Relative     =-2.67963E-05
 fconv : at Broyd/MD step   4, gradients have not converged yet.
  max grad (force/stress) = 3.5980E-01 > tolmxf= 5.0000E-05 ha/bohr (free atoms)

[...]

--- Iteration: ( 9/10) Internal Cycle: (1/1)

[...]

 Difference of energy with previous step (new-old):
           Absolute (Ha)= 3.49890E-06
           Relative     = 2.58715E-08
 fconv : at Broyd/MD step   9, gradients have not converged yet.
  max grad (force/stress) = 6.6008E-04 > tolmxf= 5.0000E-05 ha/bohr (free atoms)

 Geometry Optimization Precondition:           0
 EXIT:           1           1
 mover: previous time step took 00 [s]

--- Iteration: (10/10) Internal Cycle: (1/1)

 Cartesian coordinates (xcart) [bohr]
  0.00000000000000E+00  0.00000000000000E+00  0.00000000000000E+00
 Reduced coordinates (xred)
  0.00000000000000E+00  0.00000000000000E+00  0.00000000000000E+00
 Scale of Primitive Cell (acell) [bohr]
  7.25512869981157E+00  7.25512869981157E+00  7.25512869981157E+00
 Real space primitive translations (rprimd) [bohr]
  0.00000000000000E+00  3.62756434990578E+00  3.62756434990578E+00
  3.62756434990578E+00  0.00000000000000E+00  3.62756434990578E+00
  3.62756434990578E+00  3.62756434990578E+00  0.00000000000000E+00
 Unitary Cell Volume (ucvol) [Bohr^3]=  9.54718572722269E+01
 Angles (23,13,12)= [degrees]
  6.00000000000000E+01  6.00000000000000E+01  6.00000000000000E+01
 Lengths [Bohr]
  5.13015070201790E+00  5.13015070201790E+00  5.13015070201790E+00

---SELF-CONSISTENT-FIELD CONVERGENCE--------------------------------------------

 getcut: wavevector=  0.0000  0.0000  0.0000  ngfft=  24  24  24
         ecut(hartree)=     20.000   => boxcut(ratio)=   2.32381

 getcut : COMMENT -
  Note that boxcut > 2.2 ; recall that boxcut=Gcut(box)/Gcut(sphere) = 2
  is sufficient for exact treatment of convolution.
  Such a large boxcut is a waste : you could raise ecut
  e.g. ecut=   27.000512 Hartrees makes boxcut=2

[...]

Simple mixing update:
  residual square of the potential :   1.8345615682540311E-005
 scfcv: previous iteration took 00 [s]

 ITER STEP NUMBER     2
 vtorho : nnsclo_now=2, note that nnsclo,dbl_nnsclo,istep=0 0 2
 non-scf iterations; kpt #     1  , k= ( -0.25000  0.50000  0.00000  ), band residuals:
 res:  1.27E-10  5.11E-10  8.60E-11  2.11E-11  3.60E-10  2.94E-10  9.29E-10  4.05E-11
 res:  1.32E-11  1.60E-09
 ene: -2.60E+00 -1.37E+00 -1.36E+00 -1.36E+00  3.22E-01  3.50E-01  4.10E-01  4.42E-01
 ene:  5.07E-01  6.44E-01
 res:  4.25E-15  5.13E-16  6.74E-16  2.06E-16  2.39E-14  2.75E-14  6.48E-14  1.04E-15
 res:  7.85E-15  7.46E-13
 ene: -2.60E+00 -1.37E+00 -1.36E+00 -1.36E+00  3.22E-01  3.50E-01  4.10E-01  4.42E-01
 ene:  5.07E-01  6.44E-01
 vtowfk : number of one-way 3D ffts skipped in vtowfk until now =115
     eigenvalues (hartree) for   10  bands
              after    3 non-SCF iterations with    4 CG line minimizations
 -2.6037E+00 -1.3702E+00 -1.3630E+00 -1.3606E+00  3.2196E-01  3.5026E-01
  4.1002E-01  4.4210E-01  5.0669E-01  6.4395E-01
 non-scf iterations; kpt #     2  , k= ( -0.25000  0.00000  0.00000  ), band residuals:
 res:  3.07E-10  2.20E-10  1.12E-11  1.12E-11  7.45E-10  5.89E-10  4.13E-11  4.13E-11
 res:  6.12E-12  6.12E-12
 ene: -2.60E+00 -1.36E+00 -1.36E+00 -1.36E+00  2.91E-01  3.91E-01  4.06E-01  4.06E-01
 ene:  4.64E-01  4.64E-01
 res:  2.79E-15  4.23E-16  1.06E-16  1.06E-16  8.64E-18  1.86E-16  1.47E-15  1.47E-15
 res:  2.67E-16  2.67E-16
 ene: -2.60E+00 -1.36E+00 -1.36E+00 -1.36E+00  2.91E-01  3.91E-01  4.06E-01  4.06E-01
 ene:  4.64E-01  4.64E-01
 vtowfk : number of one-way 3D ffts skipped in vtowfk until now =116
     eigenvalues (hartree) for   10  bands
              after    3 non-SCF iterations with    4 CG line minimizations
 -2.6031E+00 -1.3647E+00 -1.3574E+00 -1.3574E+00  2.9131E-01  3.9101E-01
  4.0612E-01  4.0612E-01  4.6444E-01  4.6444E-01
 Total charge density [el/Bohr^3]
      Maximum=    1.7552E+00  at reduced coord.    0.9167    0.9583    0.9583
      Minimum=    1.9448E-02  at reduced coord.    0.5000    0.5000    0.5000
   Integrated=    1.8000E+01
 ETOT  2  -135.24135341675     2.018E-10 7.460E-13 2.940E-05
 scprqt: <Vxc>= -5.1575586E-01 hartree

 Pulay update with  1 previous iterations:
 mixing of old trial potential : alpha(m:m-4)=  0.505      0.495
 scfcv: previous iteration took 00 [s]

 ITER STEP NUMBER     3
 vtorho : nnsclo_now=1, note that nnsclo,dbl_nnsclo,istep=0 0 3
 non-scf iterations; kpt #     1  , k= ( -0.25000  0.50000  0.00000  ), band residuals:
 res:  5.09E-11  1.73E-10  2.98E-11  8.27E-12  8.63E-11  7.20E-11  2.24E-10  1.13E-11
 res:  2.81E-12  4.01E-10
 ene: -2.60E+00 -1.37E+00 -1.36E+00 -1.36E+00  3.22E-01  3.50E-01  4.10E-01  4.42E-01
 ene:  5.07E-01  6.44E-01
 vtowfk : number of one-way 3D ffts skipped in vtowfk until now =117
     eigenvalues (hartree) for   10  bands
              after    2 non-SCF iterations with    4 CG line minimizations
 -2.6037E+00 -1.3703E+00 -1.3631E+00 -1.3607E+00  3.2193E-01  3.5023E-01
  4.0999E-01  4.4206E-01  5.0665E-01  6.4393E-01
 non-scf iterations; kpt #     2  , k= ( -0.25000  0.00000  0.00000  ), band residuals:
 res:  1.21E-10  7.32E-11  4.90E-12  4.90E-12  2.13E-10  1.45E-10  7.48E-12  7.48E-12
 res:  1.94E-12  1.94E-12
 ene: -2.60E+00 -1.36E+00 -1.36E+00 -1.36E+00  2.91E-01  3.91E-01  4.06E-01  4.06E-01
 ene:  4.64E-01  4.64E-01
 vtowfk : number of one-way 3D ffts skipped in vtowfk until now =118
     eigenvalues (hartree) for   10  bands
              after    2 non-SCF iterations with    4 CG line minimizations
 -2.6031E+00 -1.3648E+00 -1.3575E+00 -1.3575E+00  2.9129E-01  3.9098E-01
  4.0608E-01  4.0608E-01  4.6440E-01  4.6440E-01
 Total charge density [el/Bohr^3]
      Maximum=    1.7553E+00  at reduced coord.    0.9167    0.9583    0.9583
      Minimum=    1.9446E-02  at reduced coord.    0.5000    0.5000    0.5000
   Integrated=    1.8000E+01
 ETOT  3  -135.24135343289    -1.614E-08 4.011E-10 4.583E-08
 scprqt: <Vxc>= -5.1574920E-01 hartree

 At SCF step    3, etot is converged :
  for the second time, diff in etot=  1.614E-08 < toldfe=  1.000E-06

[...]

 fftdatar_write: About to write data to: PdGeomOpt_o_TIM10_DEN with iomode IO_MODE_FORTRAN

---OUTPUT-----------------------------------------------------------------------

 Cartesian coordinates (xcart) [bohr]
  0.00000000000000E+00  0.00000000000000E+00  0.00000000000000E+00
 Reduced coordinates (xred)
  0.00000000000000E+00  0.00000000000000E+00  0.00000000000000E+00
 Cartesian forces (fcart) [Ha/bohr]; max,rms= 0.00000E+00 0.00000E+00 (free atoms)
 -0.00000000000000E+00 -0.00000000000000E+00 -0.00000000000000E+00
 Reduced forces (fred)
  0.00000000000000E+00  0.00000000000000E+00  0.00000000000000E+00
 Scale of Primitive Cell (acell) [bohr]
  7.25512869981157E+00  7.25512869981157E+00  7.25512869981157E+00
 Real space primitive translations (rprimd) [bohr]
  0.00000000000000E+00  3.62756434990578E+00  3.62756434990578E+00
  3.62756434990578E+00  0.00000000000000E+00  3.62756434990578E+00
  3.62756434990578E+00  3.62756434990578E+00  0.00000000000000E+00
 Unitary Cell Volume (ucvol) [Bohr^3]=  9.54718572722269E+01
 Angles (23,13,12)= [degrees]
  6.00000000000000E+01  6.00000000000000E+01  6.00000000000000E+01
 Lengths [Bohr]
  5.13015070201790E+00  5.13015070201790E+00  5.13015070201790E+00
 Stress tensor in cartesian coordinates (strten) [Ha/bohr^3]
 -2.65342796512691E-07  0.00000000000000E+00  0.00000000000000E+00
  0.00000000000000E+00 -2.65342796540446E-07  0.00000000000000E+00
  0.00000000000000E+00  0.00000000000000E+00 -2.65342796484935E-07
 Total energy (etotal) [Ha]= -1.35241353432889E+02

 Difference of energy with previous step (new-old):
           Absolute (Ha)= 7.02914E-09
           Relative     = 5.19748E-11

 At Broyd/MD step  10, gradients are converged :
  max grad (force/stress) = 2.6534E-05 < tolmxf= 5.0000E-05 ha/bohr (free atoms)

 Geometry Optimization Precondition:           0

 ----iterations are completed or convergence reached----

 Mean square residual over all n,k,spin=   8.2000E-11; max=  4.0110E-10
  -0.2500  0.5000  0.0000    1  4.01100E-10 kpt; spin; max resid(k); each band:
  5.09E-11 1.73E-10 2.98E-11 8.27E-12 8.63E-11 7.20E-11 2.24E-10 1.13E-11
  2.81E-12 4.01E-10
  -0.2500  0.0000  0.0000    1  2.13142E-10 kpt; spin; max resid(k); each band:
  1.21E-10 7.32E-11 4.90E-12 4.90E-12 2.13E-10 1.45E-10 7.48E-12 7.48E-12
  1.94E-12 1.94E-12

 outwf: write wavefunction to file PdGeomOpt_o_WFK, with iomode -1
 prteigrs : about to open file PdGeomOpt_o_EIG
 Fermi (or HOMO) energy (hartree) =   0.50665   Average Vxc (hartree)=  -0.51575
 Eigenvalues (hartree) for nkpt=   2  k points:
 kpt#   1, nband= 10, wtk=  0.75000, kpt= -0.2500  0.5000  0.0000 (reduced coord)
  -2.60372   -1.37029   -1.36309   -1.36066    0.32193    0.35023    0.40999    0.44206
   0.50665    0.64393
 kpt#   2, nband= 10, wtk=  0.25000, kpt= -0.2500  0.0000  0.0000 (reduced coord)
  -2.60313   -1.36480   -1.35751   -1.35751    0.29129    0.39098    0.40608    0.40608
   0.46440    0.46440
 Total charge density [el/Bohr^3]
      Maximum=    1.7553E+00  at reduced coord.    0.9167    0.9583    0.9583
 Next maximum=    1.7553E+00  at reduced coord.    0.1667    0.9583    0.9583
      Minimum=    1.9446E-02  at reduced coord.    0.5000    0.5000    0.5000
 Next minimum=    1.9896E-02  at reduced coord.    0.5000    0.5000    0.4583
   Integrated=    1.8000E+01

 Cartesian components of stress tensor (hartree/bohr^3)
  sigma(1 1)= -2.65342797E-07  sigma(3 2)=  0.00000000E+00
  sigma(2 2)= -2.65342797E-07  sigma(3 1)=  0.00000000E+00
  sigma(3 3)= -2.65342796E-07  sigma(2 1)=  0.00000000E+00

-Cartesian components of stress tensor (GPa)         [Pressure=  7.8067E-03 GPa]
- sigma(1 1)= -7.80665328E-03  sigma(3 2)=  0.00000000E+00
- sigma(2 2)= -7.80665328E-03  sigma(3 1)=  0.00000000E+00
- sigma(3 3)= -7.80665328E-03  sigma(2 1)=  0.00000000E+00

== END DATASET(S) ==============================================================

 -outvars: echo values of variables after computation  --------
            acell      7.2551286998E+00  7.2551286998E+00  7.2551286998E+00 Bohr
              amu      1.06420000E+02
           diemac      1.20000000E+01
          dilatmx      1.05000000E+00
             ecut      2.00000000E+01 Hartree
           ecutsm      5.00000000E-01 Hartree
           etotal     -1.3524135343E+02
            fcart     -0.0000000000E+00 -0.0000000000E+00 -0.0000000000E+00
-          fftalg         112
           getwfk          -1
           ionmov           2
              ixc          11
              kpt     -2.50000000E-01  5.00000000E-01  0.00000000E+00
                      -2.50000000E-01  0.00000000E+00  0.00000000E+00
         kptrlatt        2   -2    2     -2    2    2     -2   -2    2
          kptrlen      1.47000000E+01
P           mkmem           2
            natom           1
            nband          10
            ngfft          24      24      24
             nkpt           2
            nstep          20
             nsym          48
            ntime          10
           ntypat           1
              occ      2.000000  2.000000  2.000000  2.000000  2.000000  2.000000
                       2.000000  2.000000  2.000000  0.000000
          optcell           1
            rprim      0.0000000000E+00  5.0000000000E-01  5.0000000000E-01
                       5.0000000000E-01  0.0000000000E+00  5.0000000000E-01
                       5.0000000000E-01  5.0000000000E-01  0.0000000000E+00
           shiftk      5.00000000E-01  5.00000000E-01  5.00000000E-01
          spgroup         225
           strten     -2.6534279651E-07 -2.6534279654E-07 -2.6534279648E-07
                       0.0000000000E+00  0.0000000000E+00  0.0000000000E+00
           symrel      1  0  0   0  1  0   0  0  1      -1  0  0   0 -1  0   0  0 -1
                       0 -1  1   0 -1  0   1 -1  0       0  1 -1   0  1  0  -1  1  0
                      -1  0  0  -1  0  1  -1  1  0       1  0  0   1  0 -1   1 -1  0
                       0  1 -1   1  0 -1   0  0 -1       0 -1  1  -1  0  1   0  0  1
                      -1  0  0  -1  1  0  -1  0  1       1  0  0   1 -1  0   1  0 -1
                       0 -1  1   1 -1  0   0 -1  0       0  1 -1  -1  1  0   0  1  0
                       1  0  0   0  0  1   0  1  0      -1  0  0   0  0 -1   0 -1  0
                       0  1 -1   0  0 -1   1  0 -1       0 -1  1   0  0  1  -1  0  1
                      -1  0  1  -1  1  0  -1  0  0       1  0 -1   1 -1  0   1  0  0
                       0 -1  0   1 -1  0   0 -1  1       0  1  0  -1  1  0   0  1 -1
                       1  0 -1   0  0 -1   0  1 -1      -1  0  1   0  0  1   0 -1  1
                       0  1  0   0  0  1   1  0  0       0 -1  0   0  0 -1  -1  0  0
                       1  0 -1   0  1 -1   0  0 -1      -1  0  1   0 -1  1   0  0  1
                       0 -1  0   0 -1  1   1 -1  0       0  1  0   0  1 -1  -1  1  0
                      -1  0  1  -1  0  0  -1  1  0       1  0 -1   1  0  0   1 -1  0
                       0  1  0   1  0  0   0  0  1       0 -1  0  -1  0  0   0  0 -1
                       0  0 -1   0  1 -1   1  0 -1       0  0  1   0 -1  1  -1  0  1
                       1 -1  0   0 -1  1   0 -1  0      -1  1  0   0  1 -1   0  1  0
                       0  0  1   1  0  0   0  1  0       0  0 -1  -1  0  0   0 -1  0
                      -1  1  0  -1  0  0  -1  0  1       1 -1  0   1  0  0   1  0 -1
                       0  0  1   0  1  0   1  0  0       0  0 -1   0 -1  0  -1  0  0
                       1 -1  0   0 -1  0   0 -1  1      -1  1  0   0  1  0   0  1 -1
                       0  0 -1   1  0 -1   0  1 -1       0  0  1  -1  0  1   0 -1  1
                      -1  1  0  -1  0  1  -1  0  0       1 -1  0   1  0 -1   1  0  0
           toldfe      1.00000000E-06 Hartree
            typat      1
              wtk        0.75000    0.25000
            znucl       46.00000

 Suggested references for the acknowledgment of ABINIT usage.

 Calculation completed.
.Delivered   0 WARNINGs and  10 COMMENTs to log file.

--- !FinalSummary
program: abinit
version: 8.6.3
start_datetime: Mon Apr 23 08:44:45 2018
end_datetime: Mon Apr 23 08:44:50 2018
overall_cpu_time:           4.2
overall_wall_time:           5.9
exit_requested_by_user: no
timelimit: 0
pseudos:
    Pd  : 4144628137bc01fa80f914e5e2c5b797
usepaw: 0
mpi_procs: 1
omp_threads: 1
num_warnings: 0
num_comments: 10
...