.Version 8.6.3 of ABINIT
.(sequential version, prepared for a x86_64_linux_gnu5.4 computer)

 ABINIT is a project of the Universite Catholique de Louvain,
 Corning Inc. and other collaborators, see ~abinit/doc/developers/contributors.txt .
 Please read ~abinit/doc/users/acknowledgments.html for suggested
 acknowledgments of the ABINIT effort.

.Starting date : Sat 21 Apr 2018.
- ( at 08h59 )

 === Build Information ===
  Version       : 8.6.3
  Build target  : x86_64_linux_gnu5.4
  Build date    : 20180412

 === Optimizations ===
  Debug level        : basic
  Optimization level : standard
  Architecture       : unknown_unknown

 === Multicore ===
  Parallel build : no
  Parallel I/O   : no
  openMP support : no
  GPU support    : no

 === Connectors / Fallbacks ===
  Connectors on : yes
  Fallbacks on  : yes
  DFT flavor    : none
  FFT flavor    : none
  LINALG flavor : netlib-fallback
  MATH flavor   : none
  TIMER flavor  : abinit
  TRIO flavor   : none

 === Experimental features ===
  Bindings            : @enable_bindings@
  Exports             : no
  GW double-precision : no

 Default optimizations:
   -O2 -mtune=native -march=native

 Optimizations for 20_datashare:
   -O0

 CPP options activated during the build:

                    CC_GNU                   CXX_GNU                    FC_GNU

 HAVE_FC_ALLOCATABLE_DT...             HAVE_FC_ASYNC         HAVE_FC_BACKTRACE

  HAVE_FC_COMMAND_ARGUMENT      HAVE_FC_COMMAND_LINE        HAVE_FC_CONTIGUOUS

           HAVE_FC_CPUTIME              HAVE_FC_EXIT             HAVE_FC_FLUSH

             HAVE_FC_GAMMA            HAVE_FC_GETENV   HAVE_FC_IEEE_EXCEPTIONS

          HAVE_FC_INT_QUAD             HAVE_FC_IOMSG     HAVE_FC_ISO_C_BINDING

  HAVE_FC_ISO_FORTRAN_2008        HAVE_FC_LONG_LINES        HAVE_FC_MOVE_ALLOC

           HAVE_FC_PRIVATE         HAVE_FC_PROTECTED         HAVE_FC_STREAM_IO

            HAVE_FC_SYSTEM          HAVE_FORTRAN2003        HAVE_LIBPAW_ABINIT

      HAVE_LIBTETRA_ABINIT             HAVE_OS_LINUX         HAVE_TIMER_ABINIT

              USE_MACROAVE

- input  file    -> PdGeomOpt.in
- output file    -> PdGeomOpt.out
- root for input  files -> PdGeomOpt_i
- root for output files -> PdGeomOpt_o

-instrng: 89 lines of input have been read from file PdGeomOpt.in

 Please give name of formatted atomic psp file
 iofn2 : for atom type 1, psp file is ../../../Psps_for_tests/Pd.psp8
  read the values zionpsp= 18.0 , pspcod=   8 , lmax=   2

 inpspheads: deduce mpsang = 3, n1xccc = 2501.
 invars1 : treat image number: 1

 symlatt : the Bravais lattice is cF (face-centered cubic)
  xred   is defined in input file
 ingeo : takes atomic coordinates from input array xred
 symfind : exit, nsym=48
   symrel matrices, symafm and tnons are :
   1       1   0   0     0   1   0     0   0   1       1      0.0000  0.0000  0.0000
   2      -1   0   0     0  -1   0     0   0  -1       1      0.0000  0.0000  0.0000
   3       0  -1   1     0  -1   0     1  -1   0       1      0.0000  0.0000  0.0000
   4       0   1  -1     0   1   0    -1   1   0       1      0.0000  0.0000  0.0000
   5      -1   0   0    -1   0   1    -1   1   0       1      0.0000  0.0000  0.0000
   6       1   0   0     1   0  -1     1  -1   0       1      0.0000  0.0000  0.0000
   7       0   1  -1     1   0  -1     0   0  -1       1      0.0000  0.0000  0.0000
   8       0  -1   1    -1   0   1     0   0   1       1      0.0000  0.0000  0.0000
   9      -1   0   0    -1   1   0    -1   0   1       1      0.0000  0.0000  0.0000
  10       1   0   0     1  -1   0     1   0  -1       1      0.0000  0.0000  0.0000
  11       0  -1   1     1  -1   0     0  -1   0       1      0.0000  0.0000  0.0000
  12       0   1  -1    -1   1   0     0   1   0       1      0.0000  0.0000  0.0000
  13       1   0   0     0   0   1     0   1   0       1      0.0000  0.0000  0.0000
  14      -1   0   0     0   0  -1     0  -1   0       1      0.0000  0.0000  0.0000
  15       0   1  -1     0   0  -1     1   0  -1       1      0.0000  0.0000  0.0000
  16       0  -1   1     0   0   1    -1   0   1       1      0.0000  0.0000  0.0000
  17      -1   0   1    -1   1   0    -1   0   0       1      0.0000  0.0000  0.0000
  18       1   0  -1     1  -1   0     1   0   0       1      0.0000  0.0000  0.0000
  19       0  -1   0     1  -1   0     0  -1   1       1      0.0000  0.0000  0.0000
  20       0   1   0    -1   1   0     0   1  -1       1      0.0000  0.0000  0.0000
  21       1   0  -1     0   0  -1     0   1  -1       1      0.0000  0.0000  0.0000
  22      -1   0   1     0   0   1     0  -1   1       1      0.0000  0.0000  0.0000
  23       0   1   0     0   0   1     1   0   0       1      0.0000  0.0000  0.0000
  24       0  -1   0     0   0  -1    -1   0   0       1      0.0000  0.0000  0.0000
  25       1   0  -1     0   1  -1     0   0  -1       1      0.0000  0.0000  0.0000
  26      -1   0   1     0  -1   1     0   0   1       1      0.0000  0.0000  0.0000
  27       0  -1   0     0  -1   1     1  -1   0       1      0.0000  0.0000  0.0000
  28       0   1   0     0   1  -1    -1   1   0       1      0.0000  0.0000  0.0000
  29      -1   0   1    -1   0   0    -1   1   0       1      0.0000  0.0000  0.0000
  30       1   0  -1     1   0   0     1  -1   0       1      0.0000  0.0000  0.0000
  31       0   1   0     1   0   0     0   0   1       1      0.0000  0.0000  0.0000
  32       0  -1   0    -1   0   0     0   0  -1       1      0.0000  0.0000  0.0000
  33       0   0  -1     0   1  -1     1   0  -1       1      0.0000  0.0000  0.0000
  34       0   0   1     0  -1   1    -1   0   1       1      0.0000  0.0000  0.0000
  35       1  -1   0     0  -1   1     0  -1   0       1      0.0000  0.0000  0.0000
  36      -1   1   0     0   1  -1     0   1   0       1      0.0000  0.0000  0.0000
  37       0   0   1     1   0   0     0   1   0       1      0.0000  0.0000  0.0000
  38       0   0  -1    -1   0   0     0  -1   0       1      0.0000  0.0000  0.0000
  39      -1   1   0    -1   0   0    -1   0   1       1      0.0000  0.0000  0.0000
  40       1  -1   0     1   0   0     1   0  -1       1      0.0000  0.0000  0.0000
  41       0   0   1     0   1   0     1   0   0       1      0.0000  0.0000  0.0000
  42       0   0  -1     0  -1   0    -1   0   0       1      0.0000  0.0000  0.0000
  43       1  -1   0     0  -1   0     0  -1   1       1      0.0000  0.0000  0.0000
  44      -1   1   0     0   1   0     0   1  -1       1      0.0000  0.0000  0.0000
  45       0   0  -1     1   0  -1     0   1  -1       1      0.0000  0.0000  0.0000
  46       0   0   1    -1   0   1     0  -1   1       1      0.0000  0.0000  0.0000
  47      -1   1   0    -1   0   1    -1   0   0       1      0.0000  0.0000  0.0000
  48       1  -1   0     1   0  -1     1   0   0       1      0.0000  0.0000  0.0000

 symlatt : the Bravais lattice is cF (face-centered cubic)

 symlatt : the Bravais lattice is cF (face-centered cubic)
 symspgr : spgroup= 225  Fm -3 m   (=Oh^5)
 symspgr : optical characteristics = isotropic
 ingeo : angdeg(1:3)=   60.00000000   60.00000000   60.00000000
 invars1 : treat image number: 1

 symlatt : the Bravais lattice is cF (face-centered cubic)
  xred   is defined in input file
 ingeo : takes atomic coordinates from input array xred
 symfind : exit, nsym=48
   symrel matrices, symafm and tnons are :
   1       1   0   0     0   1   0     0   0   1       1      0.0000  0.0000  0.0000
   2      -1   0   0     0  -1   0     0   0  -1       1      0.0000  0.0000  0.0000
   3       0  -1   1     0  -1   0     1  -1   0       1      0.0000  0.0000  0.0000
   4       0   1  -1     0   1   0    -1   1   0       1      0.0000  0.0000  0.0000
   5      -1   0   0    -1   0   1    -1   1   0       1      0.0000  0.0000  0.0000
   6       1   0   0     1   0  -1     1  -1   0       1      0.0000  0.0000  0.0000
   7       0   1  -1     1   0  -1     0   0  -1       1      0.0000  0.0000  0.0000
   8       0  -1   1    -1   0   1     0   0   1       1      0.0000  0.0000  0.0000
   9      -1   0   0    -1   1   0    -1   0   1       1      0.0000  0.0000  0.0000
  10       1   0   0     1  -1   0     1   0  -1       1      0.0000  0.0000  0.0000
  11       0  -1   1     1  -1   0     0  -1   0       1      0.0000  0.0000  0.0000
  12       0   1  -1    -1   1   0     0   1   0       1      0.0000  0.0000  0.0000
  13       1   0   0     0   0   1     0   1   0       1      0.0000  0.0000  0.0000
  14      -1   0   0     0   0  -1     0  -1   0       1      0.0000  0.0000  0.0000
  15       0   1  -1     0   0  -1     1   0  -1       1      0.0000  0.0000  0.0000
  16       0  -1   1     0   0   1    -1   0   1       1      0.0000  0.0000  0.0000
  17      -1   0   1    -1   1   0    -1   0   0       1      0.0000  0.0000  0.0000
  18       1   0  -1     1  -1   0     1   0   0       1      0.0000  0.0000  0.0000
  19       0  -1   0     1  -1   0     0  -1   1       1      0.0000  0.0000  0.0000
  20       0   1   0    -1   1   0     0   1  -1       1      0.0000  0.0000  0.0000
  21       1   0  -1     0   0  -1     0   1  -1       1      0.0000  0.0000  0.0000
  22      -1   0   1     0   0   1     0  -1   1       1      0.0000  0.0000  0.0000
  23       0   1   0     0   0   1     1   0   0       1      0.0000  0.0000  0.0000
  24       0  -1   0     0   0  -1    -1   0   0       1      0.0000  0.0000  0.0000
  25       1   0  -1     0   1  -1     0   0  -1       1      0.0000  0.0000  0.0000
  26      -1   0   1     0  -1   1     0   0   1       1      0.0000  0.0000  0.0000
  27       0  -1   0     0  -1   1     1  -1   0       1      0.0000  0.0000  0.0000
  28       0   1   0     0   1  -1    -1   1   0       1      0.0000  0.0000  0.0000
  29      -1   0   1    -1   0   0    -1   1   0       1      0.0000  0.0000  0.0000
  30       1   0  -1     1   0   0     1  -1   0       1      0.0000  0.0000  0.0000
  31       0   1   0     1   0   0     0   0   1       1      0.0000  0.0000  0.0000
  32       0  -1   0    -1   0   0     0   0  -1       1      0.0000  0.0000  0.0000
  33       0   0  -1     0   1  -1     1   0  -1       1      0.0000  0.0000  0.0000
  34       0   0   1     0  -1   1    -1   0   1       1      0.0000  0.0000  0.0000
  35       1  -1   0     0  -1   1     0  -1   0       1      0.0000  0.0000  0.0000
  36      -1   1   0     0   1  -1     0   1   0       1      0.0000  0.0000  0.0000
  37       0   0   1     1   0   0     0   1   0       1      0.0000  0.0000  0.0000
  38       0   0  -1    -1   0   0     0  -1   0       1      0.0000  0.0000  0.0000
  39      -1   1   0    -1   0   0    -1   0   1       1      0.0000  0.0000  0.0000
  40       1  -1   0     1   0   0     1   0  -1       1      0.0000  0.0000  0.0000
  41       0   0   1     0   1   0     1   0   0       1      0.0000  0.0000  0.0000
  42       0   0  -1     0  -1   0    -1   0   0       1      0.0000  0.0000  0.0000
  43       1  -1   0     0  -1   0     0  -1   1       1      0.0000  0.0000  0.0000
  44      -1   1   0     0   1   0     0   1  -1       1      0.0000  0.0000  0.0000
  45       0   0  -1     1   0  -1     0   1  -1       1      0.0000  0.0000  0.0000
[...]
 ene:  5.79E-01  6.20E-01
 vtowfk : number of one-way 3D ffts skipped in vtowfk until now =427
     eigenvalues (hartree) for   10  bands
              after    2 non-SCF iterations with    4 CG line minimizations
 -3.1897E+00 -1.7516E+00 -1.7259E+00 -1.7236E+00  3.4512E-01  4.6832E-01
  4.8465E-01  5.0315E-01  5.7921E-01  6.2012E-01
 non-scf iterations; kpt #     6  , k= ( -0.25000  0.37500  0.00000  ), band residuals:
 res:  1.33E-14  1.34E-14  7.18E-15  1.05E-15  1.46E-14  2.64E-14  1.37E-14  5.44E-16
 res:  3.06E-16  5.03E-14
 ene: -3.19E+00 -1.77E+00 -1.75E+00 -1.73E+00  3.95E-01  4.32E-01  4.83E-01  5.41E-01
 ene:  6.13E-01  7.53E-01
 vtowfk : number of one-way 3D ffts skipped in vtowfk until now =428
     eigenvalues (hartree) for   10  bands
              after    2 non-SCF iterations with    4 CG line minimizations
 -3.1880E+00 -1.7728E+00 -1.7531E+00 -1.7260E+00  3.9505E-01  4.3227E-01
  4.8277E-01  5.4131E-01  6.1308E-01  7.5343E-01
 non-scf iterations; kpt #     7  , k= ( -0.37500  0.50000  0.00000  ), band residuals:
 res:  5.95E-15  2.46E-14  9.80E-16  1.69E-15  1.06E-14  9.14E-16  4.84E-14  1.41E-15
 res:  7.02E-16  6.10E-14
 ene: -3.19E+00 -1.78E+00 -1.77E+00 -1.74E+00  3.51E-01  3.84E-01  5.50E-01  5.92E-01
 ene:  6.36E-01  7.03E-01
 vtowfk : number of one-way 3D ffts skipped in vtowfk until now =429
     eigenvalues (hartree) for   10  bands
              after    2 non-SCF iterations with    4 CG line minimizations
 -3.1878E+00 -1.7819E+00 -1.7657E+00 -1.7402E+00  3.5125E-01  3.8390E-01
  5.5044E-01  5.9192E-01  6.3565E-01  7.0344E-01
 non-scf iterations; kpt #     8  , k= ( -0.25000  0.50000  0.12500  ), band residuals:
 res:  9.90E-15  1.71E-14  4.84E-15  1.81E-15  1.32E-14  3.65E-15  3.57E-14  2.65E-15
 res:  2.68E-15  6.16E-14
 ene: -3.19E+00 -1.79E+00 -1.78E+00 -1.76E+00  3.85E-01  4.16E-01  4.80E-01  5.55E-01
 ene:  6.10E-01  7.88E-01
 vtowfk : number of one-way 3D ffts skipped in vtowfk until now =430
     eigenvalues (hartree) for   10  bands
              after    2 non-SCF iterations with    4 CG line minimizations
 -3.1877E+00 -1.7855E+00 -1.7751E+00 -1.7555E+00  3.8457E-01  4.1562E-01
  4.7992E-01  5.5463E-01  6.1043E-01  7.8795E-01
 non-scf iterations; kpt #     9  , k= ( -0.12500  0.00000  0.00000  ), band residuals:
 res:  1.99E-14  2.97E-16  2.98E-16  2.76E-15  2.19E-14  1.08E-15  9.90E-16  1.06E-15
 res:  1.07E-15  1.15E-15
 ene: -3.19E+00 -1.78E+00 -1.78E+00 -1.73E+00  2.62E-01  4.55E-01  4.56E-01  4.59E-01
 ene:  5.42E-01  5.43E-01
 vtowfk : number of one-way 3D ffts skipped in vtowfk until now =431
     eigenvalues (hartree) for   10  bands
              after    2 non-SCF iterations with    4 CG line minimizations
 -3.1923E+00 -1.7822E+00 -1.7820E+00 -1.7327E+00  2.6211E-01  4.5523E-01
  4.5558E-01  4.5933E-01  5.4225E-01  5.4274E-01
 non-scf iterations; kpt #    10  , k= ( -0.37500  0.00000  0.00000  ), band residuals:
 res:  1.25E-14  1.73E-14  7.19E-16  7.14E-16  2.16E-14  2.64E-16  2.62E-16  3.11E-14
 res:  2.15E-16  2.28E-16
 ene: -3.19E+00 -1.75E+00 -1.73E+00 -1.73E+00  3.32E-01  4.87E-01  4.88E-01  5.17E-01
 ene:  6.25E-01  6.26E-01
 vtowfk : number of one-way 3D ffts skipped in vtowfk until now =432
     eigenvalues (hartree) for   10  bands
              after    2 non-SCF iterations with    4 CG line minimizations
 -3.1893E+00 -1.7510E+00 -1.7283E+00 -1.7281E+00  3.3246E-01  4.8720E-01
  4.8784E-01  5.1710E-01  6.2517E-01  6.2593E-01
 Total charge density [el/Bohr^3]
      Maximum=    1.1601E+00  at reduced coord.    0.0000    0.1333    0.8667
      Minimum=    2.2240E-02  at reduced coord.    0.5333    0.4667    0.4667
   Integrated=    1.8000E+01
 ETOT  3  -130.19314251572    -2.971E-09 6.156E-14 4.804E-12
 scprqt: <Vxc>= -5.2895984E-01 hartree

 At SCF step    3, etot is converged :
  for the second time, diff in etot=  2.971E-09 < toldfe=  1.000E-06

[...]

 fftdatar_write: About to write data to: PdGeomOpt_o_DS2_TIM7_DEN with iomode IO_MODE_FORTRAN

---OUTPUT-----------------------------------------------------------------------

 Cartesian coordinates (xcart) [bohr]
  0.00000000000000E+00  0.00000000000000E+00  0.00000000000000E+00
 Reduced coordinates (xred)
  0.00000000000000E+00  0.00000000000000E+00  0.00000000000000E+00
 Cartesian forces (fcart) [Ha/bohr]; max,rms= 0.00000E+00 0.00000E+00 (free atoms)
 -0.00000000000000E+00 -0.00000000000000E+00 -0.00000000000000E+00
 Reduced forces (fred)
  0.00000000000000E+00  0.00000000000000E+00  0.00000000000000E+00
 Scale of Primitive Cell (acell) [bohr]
  7.33663660358166E+00  7.33663660358166E+00  7.33663660358166E+00
 Real space primitive translations (rprimd) [bohr]
  0.00000000000000E+00  3.66831830179083E+00  3.66831830179083E+00
  3.66831830179083E+00  0.00000000000000E+00  3.66831830179083E+00
  3.66831830179083E+00  3.66831830179083E+00  0.00000000000000E+00
 Unitary Cell Volume (ucvol) [Bohr^3]=  9.87258845153884E+01
 Angles (23,13,12)= [degrees]
  6.00000000000000E+01  6.00000000000000E+01  6.00000000000000E+01
 Lengths [Bohr]
  5.18778549349403E+00  5.18778549349403E+00  5.18778549349403E+00
 Stress tensor in cartesian coordinates (strten) [Ha/bohr^3]
  4.22034199948351E-08  0.00000000000000E+00  0.00000000000000E+00
  0.00000000000000E+00  4.22034199670795E-08  0.00000000000000E+00
  0.00000000000000E+00  0.00000000000000E+00  4.22034199948351E-08
 Total energy (etotal) [Ha]= -1.30193142515717E+02

 Difference of energy with previous step (new-old):
           Absolute (Ha)= 1.57216E-08
           Relative     = 1.20756E-10

 At Broyd/MD step   7, gradients are converged :
  max grad (force/stress) = 4.2203E-06 < tolmxf= 5.0000E-05 ha/bohr (free atoms)

 Geometry Optimization Precondition:           0

 ----iterations are completed or convergence reached----

 Mean square residual over all n,k,spin=   1.1560E-14; max=  6.1558E-14
  -0.1250 -0.2500  0.0000    1  2.68076E-14 kpt; spin; max resid(k); each band:
  1.78E-14 7.76E-16 9.11E-16 6.10E-15 2.68E-14 3.14E-15 2.01E-15 1.88E-15
  5.45E-15 2.44E-15
  -0.1250  0.5000  0.0000    1  5.24014E-14 kpt; spin; max resid(k); each band:
  7.30E-15 2.54E-14 3.02E-16 1.72E-15 1.14E-14 2.47E-15 8.49E-16 5.05E-14
  2.20E-16 5.24E-14
  -0.2500 -0.3750  0.0000    1  3.24908E-14 kpt; spin; max resid(k); each band:
  1.38E-14 1.19E-15 6.76E-15 7.39E-15 3.25E-14 7.28E-15 2.02E-14 1.59E-15
  1.08E-14 1.79E-14
  -0.1250 -0.3750  0.1250    1  4.15130E-14 kpt; spin; max resid(k); each band:
  1.27E-14 1.19E-14 1.91E-15 5.05E-15 3.34E-14 1.37E-14 1.07E-14 7.06E-15
  5.22E-15 4.15E-14
  -0.1250  0.2500  0.0000    1  2.98134E-14 kpt; spin; max resid(k); each band:
  1.57E-14 1.30E-15 1.05E-14 7.56E-16 2.98E-14 9.42E-15 7.88E-15 3.07E-16
  9.10E-16 1.12E-14
  -0.2500  0.3750  0.0000    1  5.02979E-14 kpt; spin; max resid(k); each band:
  1.33E-14 1.34E-14 7.18E-15 1.05E-15 1.46E-14 2.64E-14 1.37E-14 5.44E-16
  3.06E-16 5.03E-14
  -0.3750  0.5000  0.0000    1  6.10021E-14 kpt; spin; max resid(k); each band:
  5.95E-15 2.46E-14 9.80E-16 1.69E-15 1.06E-14 9.14E-16 4.84E-14 1.41E-15
  7.02E-16 6.10E-14
  -0.2500  0.5000  0.1250    1  6.15576E-14 kpt; spin; max resid(k); each band:
  9.90E-15 1.71E-14 4.84E-15 1.81E-15 1.32E-14 3.65E-15 3.57E-14 2.65E-15
  2.68E-15 6.16E-14
  -0.1250  0.0000  0.0000    1  2.18692E-14 kpt; spin; max resid(k); each band:
  1.99E-14 2.97E-16 2.98E-16 2.76E-15 2.19E-14 1.08E-15 9.90E-16 1.06E-15
  1.07E-15 1.15E-15
  -0.3750  0.0000  0.0000    1  3.11120E-14 kpt; spin; max resid(k); each band:
  1.25E-14 1.73E-14 7.19E-16 7.14E-16 2.16E-14 2.64E-16 2.62E-16 3.11E-14
  2.15E-16 2.28E-16

 outwf: write wavefunction to file PdGeomOpt_o_DS2_WFK, with iomode -1
 prteigrs : about to open file PdGeomOpt_o_DS2_EIG
 Fermi (or HOMO) energy (hartree) =   0.63565   Average Vxc (hartree)=  -0.52896
 Eigenvalues (hartree) for nkpt=  10  k points:
 kpt#   1, nband= 10, wtk=  0.09375, kpt= -0.1250 -0.2500  0.0000 (reduced coord)
  -3.19116   -1.76607   -1.75560   -1.71212    0.31005    0.43983    0.48649    0.50144
   0.55167    0.59305
 kpt#   2, nband= 10, wtk=  0.09375, kpt= -0.1250  0.5000  0.0000 (reduced coord)
  -3.18895   -1.76521   -1.75232   -1.73353    0.34946    0.46419    0.49306    0.51211
   0.62785    0.69407
 kpt#   3, nband= 10, wtk=  0.09375, kpt= -0.2500 -0.3750  0.0000 (reduced coord)
  -3.18945   -1.75524   -1.74932   -1.73003    0.35953    0.40570    0.51240    0.56299
   0.61034    0.61138
 kpt#   4, nband= 10, wtk=  0.18750, kpt= -0.1250 -0.3750  0.1250 (reduced coord)
  -3.18884   -1.76798   -1.74595   -1.72693    0.38019    0.44569    0.46664    0.54143
   0.60079    0.68101
 kpt#   5, nband= 10, wtk=  0.09375, kpt= -0.1250  0.2500  0.0000 (reduced coord)
  -3.18967   -1.75162   -1.72588   -1.72363    0.34512    0.46832    0.48465    0.50315
   0.57921    0.62012
 kpt#   6, nband= 10, wtk=  0.09375, kpt= -0.2500  0.3750  0.0000 (reduced coord)
  -3.18795   -1.77277   -1.75309   -1.72601    0.39505    0.43227    0.48277    0.54131
   0.61308    0.75343
 kpt#   7, nband= 10, wtk=  0.09375, kpt= -0.3750  0.5000  0.0000 (reduced coord)
  -3.18776   -1.78190   -1.76569   -1.74018    0.35125    0.38390    0.55044    0.59192
   0.63565    0.70344
 kpt#   8, nband= 10, wtk=  0.18750, kpt= -0.2500  0.5000  0.1250 (reduced coord)
  -3.18772   -1.78551   -1.77513   -1.75550    0.38457    0.41562    0.47992    0.55463
   0.61043    0.78795
 kpt#   9, nband= 10, wtk=  0.03125, kpt= -0.1250  0.0000  0.0000 (reduced coord)
  -3.19230   -1.78216   -1.78197   -1.73273    0.26211    0.45523    0.45558    0.45933
   0.54225    0.54274
 kpt#  10, nband= 10, wtk=  0.03125, kpt= -0.3750  0.0000  0.0000 (reduced coord)
  -3.18934   -1.75095   -1.72830   -1.72809    0.33246    0.48720    0.48784    0.51710
   0.62517    0.62593
 Total charge density [el/Bohr^3]
      Maximum=    1.1601E+00  at reduced coord.    0.0000    0.1333    0.8667
 Next maximum=    1.1601E+00  at reduced coord.    0.1333    0.0000    0.8667
      Minimum=    2.2240E-02  at reduced coord.    0.5333    0.4667    0.4667
 Next minimum=    2.2240E-02  at reduced coord.    0.4667    0.5333    0.4667
   Integrated=    1.8000E+01

 Cartesian components of stress tensor (hartree/bohr^3)
  sigma(1 1)=  4.22034200E-08  sigma(3 2)=  0.00000000E+00
  sigma(2 2)=  4.22034200E-08  sigma(3 1)=  0.00000000E+00
  sigma(3 3)=  4.22034200E-08  sigma(2 1)=  0.00000000E+00

-Cartesian components of stress tensor (GPa)         [Pressure= -1.2417E-03 GPa]
- sigma(1 1)=  1.24166728E-03  sigma(3 2)=  0.00000000E+00
- sigma(2 2)=  1.24166727E-03  sigma(3 1)=  0.00000000E+00
- sigma(3 3)=  1.24166728E-03  sigma(2 1)=  0.00000000E+00

== END DATASET(S) ==============================================================

 -outvars: echo values of variables after computation  --------
            acell1     7.4483963073E+00  7.4483963073E+00  7.4483963073E+00 Bohr
            acell2     7.3366366036E+00  7.3366366036E+00  7.3366366036E+00 Bohr
              amu      1.06420000E+02
           diemac      1.20000000E+01
          dilatmx      1.05000000E+00
             ecut      8.00000000E+00 Hartree
           ecutsm      5.00000000E-01 Hartree
           etotal1    -1.3021550292E+02
           etotal2    -1.3019314252E+02
            fcart1    -0.0000000000E+00 -0.0000000000E+00 -0.0000000000E+00
            fcart2    -0.0000000000E+00 -0.0000000000E+00 -0.0000000000E+00
-          fftalg         112
           getwfk          -1
           ionmov           2
              ixc          11
           jdtset        1    2
              kpt1    -2.50000000E-01  5.00000000E-01  0.00000000E+00
                      -2.50000000E-01  0.00000000E+00  0.00000000E+00
              kpt2    -1.25000000E-01 -2.50000000E-01  0.00000000E+00
                      -1.25000000E-01  5.00000000E-01  0.00000000E+00
                      -2.50000000E-01 -3.75000000E-01  0.00000000E+00
                      -1.25000000E-01 -3.75000000E-01  1.25000000E-01
                      -1.25000000E-01  2.50000000E-01  0.00000000E+00
                      -2.50000000E-01  3.75000000E-01  0.00000000E+00
                      -3.75000000E-01  5.00000000E-01  0.00000000E+00
                      -2.50000000E-01  5.00000000E-01  1.25000000E-01
                      -1.25000000E-01  0.00000000E+00  0.00000000E+00
                      -3.75000000E-01  0.00000000E+00  0.00000000E+00
         kptrlatt1       2   -2    2     -2    2    2     -2   -2    2
         kptrlatt2       4   -4    4     -4    4    4     -4   -4    4
          kptrlen1     1.47000000E+01
          kptrlen2     2.94000000E+01
P           mkmem1          2
P           mkmem2         10
            natom           1
            nband1         10
            nband2         10
           ndtset           2
            ngfft          15      15      15
             nkpt1          2
             nkpt2         10
            nstep          10
             nsym          48
            ntime          10
           ntypat           1
              occ1     2.000000  2.000000  2.000000  2.000000  2.000000  2.000000
                       2.000000  2.000000  2.000000  0.000000
              occ2     2.000000  2.000000  2.000000  2.000000  2.000000  2.000000
                       2.000000  2.000000  2.000000  0.000000
          optcell           1
            rprim      0.0000000000E+00  5.0000000000E-01  5.0000000000E-01
                       5.0000000000E-01  0.0000000000E+00  5.0000000000E-01
                       5.0000000000E-01  5.0000000000E-01  0.0000000000E+00
           shiftk      5.00000000E-01  5.00000000E-01  5.00000000E-01
          spgroup         225
           strten1     1.9551340396E-03  1.9551340396E-03  1.9551340396E-03
                       0.0000000000E+00  0.0000000000E+00  0.0000000000E+00
           strten2     4.2203419995E-08  4.2203419967E-08  4.2203419995E-08
                       0.0000000000E+00  0.0000000000E+00  0.0000000000E+00
           symrel      1  0  0   0  1  0   0  0  1      -1  0  0   0 -1  0   0  0 -1
                       0 -1  1   0 -1  0   1 -1  0       0  1 -1   0  1  0  -1  1  0
                      -1  0  0  -1  0  1  -1  1  0       1  0  0   1  0 -1   1 -1  0
                       0  1 -1   1  0 -1   0  0 -1       0 -1  1  -1  0  1   0  0  1
                      -1  0  0  -1  1  0  -1  0  1       1  0  0   1 -1  0   1  0 -1
                       0 -1  1   1 -1  0   0 -1  0       0  1 -1  -1  1  0   0  1  0
                       1  0  0   0  0  1   0  1  0      -1  0  0   0  0 -1   0 -1  0
                       0  1 -1   0  0 -1   1  0 -1       0 -1  1   0  0  1  -1  0  1
                      -1  0  1  -1  1  0  -1  0  0       1  0 -1   1 -1  0   1  0  0
                       0 -1  0   1 -1  0   0 -1  1       0  1  0  -1  1  0   0  1 -1
                       1  0 -1   0  0 -1   0  1 -1      -1  0  1   0  0  1   0 -1  1
                       0  1  0   0  0  1   1  0  0       0 -1  0   0  0 -1  -1  0  0
                       1  0 -1   0  1 -1   0  0 -1      -1  0  1   0 -1  1   0  0  1
                       0 -1  0   0 -1  1   1 -1  0       0  1  0   0  1 -1  -1  1  0
                      -1  0  1  -1  0  0  -1  1  0       1  0 -1   1  0  0   1 -1  0
                       0  1  0   1  0  0   0  0  1       0 -1  0  -1  0  0   0  0 -1
                       0  0 -1   0  1 -1   1  0 -1       0  0  1   0 -1  1  -1  0  1
                       1 -1  0   0 -1  1   0 -1  0      -1  1  0   0  1 -1   0  1  0
                       0  0  1   1  0  0   0  1  0       0  0 -1  -1  0  0   0 -1  0
                      -1  1  0  -1  0  0  -1  0  1       1 -1  0   1  0  0   1  0 -1
                       0  0  1   0  1  0   1  0  0       0  0 -1   0 -1  0  -1  0  0
                       1 -1  0   0 -1  0   0 -1  1      -1  1  0   0  1  0   0  1 -1
                       0  0 -1   1  0 -1   0  1 -1       0  0  1  -1  0  1   0 -1  1
                      -1  1  0  -1  0  1  -1  0  0       1 -1  0   1  0 -1   1  0  0
           toldfe      1.00000000E-06 Hartree
            typat      1
              wtk1       0.75000    0.25000
              wtk2       0.09375    0.09375    0.09375    0.18750    0.09375    0.09375
                         0.09375    0.18750    0.03125    0.03125
            znucl       46.00000

 Suggested references for the acknowledgment of ABINIT usage.

 Calculation completed.
.Delivered   5 WARNINGs and   3 COMMENTs to log file.

--- !FinalSummary
program: abinit
version: 8.6.3
start_datetime: Sat Apr 21 08:59:21 2018
end_datetime: Sat Apr 21 08:59:26 2018
overall_cpu_time:           4.5
overall_wall_time:           5.1
exit_requested_by_user: no
timelimit: 0
pseudos:
    Pd  : 4144628137bc01fa80f914e5e2c5b797
usepaw: 0
mpi_procs: 1
omp_threads: 1
num_warnings: 5
num_comments: 3
...