.Version 8.6.3 of ABINIT
.(sequential version, prepared for a x86_64_linux_gnu5.4 computer)

 ABINIT is a project of the Universite Catholique de Louvain,
 Corning Inc. and other collaborators, see ~abinit/doc/developers/contributors.txt .
 Please read ~abinit/doc/users/acknowledgments.html for suggested
 acknowledgments of the ABINIT effort.

.Starting date : Mon 23 Apr 2018.
- ( at 08h44 )

- input  file    -> PdGeomOpt.in
- output file    -> PdGeomOpt.out
- root for input  files -> PdGeomOpt_i
- root for output files -> PdGeomOpt_o

 Symmetries : space group Fm -3 m (#225); Bravais cF (face-center cubic)
     intxc =       0    ionmov =       2      iscf =       7    lmnmax =       6
     lnmax =       6     mgfft =      24  mpssoang =       3    mqgrid =    3001
     natom =       1  nloc_mem =       1    nspden =       1   nspinor =       1
    nsppol =       1      nsym =      48    n1xccc =    2501    ntypat =       1
    occopt =       1   xclevel =       2
-    mband =          10        mffmem =           1         mkmem =           2
       mpw =         492          nfft =       13824          nkpt =           2
  Rough estimation (10% accuracy) of disk space for files :

------------- Echo of variables that govern the present computation ------------
-
- outvars: echo of selected default values
-   iomode0 =  0 , fftalg0 =112 , wfoptalg0 =  0
-
- outvars: echo of global parameters not present in the input file
-  max_nthreads =    0
-
 -outvars: echo values of preprocessed input variables --------
            acell      7.3500000000E+00  7.3500000000E+00  7.3500000000E+00 Bohr
              amu      1.06420000E+02
           diemac      1.20000000E+01
          dilatmx      1.05000000E+00
             ecut      2.00000000E+01 Hartree
           ecutsm      5.00000000E-01 Hartree
-          fftalg         112
           getwfk          -1
           ionmov           2
              ixc          11
              kpt     -2.50000000E-01  5.00000000E-01  0.00000000E+00
                      -2.50000000E-01  0.00000000E+00  0.00000000E+00
         kptrlatt        2   -2    2     -2    2    2     -2   -2    2
          kptrlen      1.47000000E+01
P           mkmem           2
            natom           1
            nband          10
            ngfft          24      24      24
             nkpt           2
            nstep          20
             nsym          48
            ntime          10
           ntypat           1
              occ      2.000000  2.000000  2.000000  2.000000  2.000000  2.000000
                       2.000000  2.000000  2.000000  0.000000
          optcell           1
            rprim      0.0000000000E+00  5.0000000000E-01  5.0000000000E-01
                       5.0000000000E-01  0.0000000000E+00  5.0000000000E-01
                       5.0000000000E-01  5.0000000000E-01  0.0000000000E+00
           shiftk      5.00000000E-01  5.00000000E-01  5.00000000E-01
          spgroup         225
           symrel      1  0  0   0  1  0   0  0  1      -1  0  0   0 -1  0   0  0 -1
                       0 -1  1   0 -1  0   1 -1  0       0  1 -1   0  1  0  -1  1  0
                      -1  0  0  -1  0  1  -1  1  0       1  0  0   1  0 -1   1 -1  0
                       0  1 -1   1  0 -1   0  0 -1       0 -1  1  -1  0  1   0  0  1
                      -1  0  0  -1  1  0  -1  0  1       1  0  0   1 -1  0   1  0 -1
                       0 -1  1   1 -1  0   0 -1  0       0  1 -1  -1  1  0   0  1  0
                       1  0  0   0  0  1   0  1  0      -1  0  0   0  0 -1   0 -1  0
                       0  1 -1   0  0 -1   1  0 -1       0 -1  1   0  0  1  -1  0  1
                      -1  0  1  -1  1  0  -1  0  0       1  0 -1   1 -1  0   1  0  0
                       0 -1  0   1 -1  0   0 -1  1       0  1  0  -1  1  0   0  1 -1
                       1  0 -1   0  0 -1   0  1 -1      -1  0  1   0  0  1   0 -1  1
                       0  1  0   0  0  1   1  0  0       0 -1  0   0  0 -1  -1  0  0
                       1  0 -1   0  1 -1   0  0 -1      -1  0  1   0 -1  1   0  0  1
                       0 -1  0   0 -1  1   1 -1  0       0  1  0   0  1 -1  -1  1  0
                      -1  0  1  -1  0  0  -1  1  0       1  0 -1   1  0  0   1 -1  0
                       0  1  0   1  0  0   0  0  1       0 -1  0  -1  0  0   0  0 -1
                       0  0 -1   0  1 -1   1  0 -1       0  0  1   0 -1  1  -1  0  1
                       1 -1  0   0 -1  1   0 -1  0      -1  1  0   0  1 -1   0  1  0
                       0  0  1   1  0  0   0  1  0       0  0 -1  -1  0  0   0 -1  0
                      -1  1  0  -1  0  0  -1  0  1       1 -1  0   1  0  0   1  0 -1
                       0  0  1   0  1  0   1  0  0       0  0 -1   0 -1  0  -1  0  0
                       1 -1  0   0 -1  0   0 -1  1      -1  1  0   0  1  0   0  1 -1
                       0  0 -1   1  0 -1   0  1 -1       0  0  1  -1  0  1   0 -1  1
                      -1  1  0  -1  0  1  -1  0  0       1 -1  0   1  0 -1   1  0  0
           toldfe      1.00000000E-06 Hartree
            typat      1
              wtk        0.75000    0.25000
            znucl       46.00000

 chkinp: Checking input parameters for consistency.

== DATASET  1 ==================================================================
-   nproc =    1

 Real(R)+Recip(G) space primitive vectors, cartesian coordinates (Bohr,Bohr^-1):
 R(1)=  0.0000000  3.6750000  3.6750000  G(1)= -0.1360544  0.1360544  0.1360544
 R(2)=  3.6750000  0.0000000  3.6750000  G(2)=  0.1360544 -0.1360544  0.1360544
 R(3)=  3.6750000  3.6750000  0.0000000  G(3)=  0.1360544  0.1360544 -0.1360544
 Unit cell volume ucvol=  9.9266344E+01 bohr^3
 Angles (23,13,12)=  6.00000000E+01  6.00000000E+01  6.00000000E+01 degrees

 getcut: wavevector=  0.0000  0.0000  0.0000  ngfft=  24  24  24
         ecut(hartree)=     22.050   => boxcut(ratio)=   2.18459

--- Pseudopotential description ------------------------------------------------
- pspini: atom type   1  psp file is ../../../Psps_for_tests/Pd.psp8
- pspatm: opening atomic psp file    ../../../Psps_for_tests/Pd.psp8
- Pd    ONCVPSP-3.2.3.1  r_core=   1.41052   1.46191   1.55175
- 46.00000  18.00000    170510                znucl, zion, pspdat
    8   11    2    4       600   0.00000      pspcod,pspxc,lmax,lloc,mmax,r2well
    5.99000000000000    7.00000000000000    0.00000000000000   rchrg,fchrg,qchrg
     nproj     2     2     2
     extension_switch     1
  pspatm : epsatm=   26.09224486
         --- l  ekb(1:nproj) -->
             0    7.845850   -2.282160
             1    3.261104   -0.686948
             2   -1.134855   -0.401224
 pspatm: atomic psp has been read  and splines computed

   4.69660407E+02                                ecore*ucvol(ha*bohr**3)

_setup2: Arith. and geom. avg. npw (full set) are     488.250     488.245

=== [ionmov= 2] Broyden-Fletcher-Goldfard-Shanno method (forces)

--- Iteration: ( 1/10) Internal Cycle: (1/1)

---SELF-CONSISTENT-FIELD CONVERGENCE--------------------------------------------

     iter   Etot(hartree)      deltaE(h)  residm     vres2
 ETOT  1  -135.09375956596    -1.351E+02 7.804E-02 1.664E+02
 ETOT  2  -135.13602464672    -4.227E-02 7.218E-05 1.943E+02
 ETOT  3  -135.24404007564    -1.080E-01 2.349E-03 1.810E-01
 ETOT  4  -135.24414012712    -1.001E-04 2.187E-06 4.500E-03
 ETOT  5  -135.24414180881    -1.682E-06 4.477E-08 4.217E-05
 ETOT  6  -135.24414182809    -1.928E-08 8.551E-10 2.532E-07
 ETOT  7  -135.24414182819    -9.894E-11 7.424E-12 1.733E-09

 At SCF step    7, etot is converged :
  for the second time, diff in etot=  9.894E-11 < toldfe=  1.000E-06

 Cartesian components of stress tensor (hartree/bohr^3)
  sigma(1 1)=  7.25475190E-04  sigma(3 2)=  0.00000000E+00
  sigma(2 2)=  7.25475190E-04  sigma(3 1)=  0.00000000E+00
  sigma(3 3)=  7.25475190E-04  sigma(2 1)=  0.00000000E+00

 Integrated electronic density in atomic spheres:
 Atom  Sphere_radius  Integrated_density
    1        2.00000         15.25826468

---OUTPUT-----------------------------------------------------------------------

 Cartesian coordinates (xcart) [bohr]
  0.00000000000000E+00  0.00000000000000E+00  0.00000000000000E+00
 Reduced coordinates (xred)
  0.00000000000000E+00  0.00000000000000E+00  0.00000000000000E+00
 Cartesian forces (fcart) [Ha/bohr]; max,rms= 0.00000E+00 0.00000E+00 (free atoms)
  0.00000000000000E+00  0.00000000000000E+00  0.00000000000000E+00
 Reduced forces (fred)
 -0.00000000000000E+00 -0.00000000000000E+00 -0.00000000000000E+00
 Scale of Primitive Cell (acell) [bohr]
  7.35000000000000E+00  7.35000000000000E+00  7.35000000000000E+00
 Real space primitive translations (rprimd) [bohr]
  0.00000000000000E+00  3.67500000000000E+00  3.67500000000000E+00
  3.67500000000000E+00  0.00000000000000E+00  3.67500000000000E+00
  3.67500000000000E+00  3.67500000000000E+00  0.00000000000000E+00
 Unitary Cell Volume (ucvol) [Bohr^3]=  9.92663437500000E+01
 Angles (23,13,12)= [degrees]
  6.00000000000000E+01  6.00000000000000E+01  6.00000000000000E+01
 Lengths [Bohr]
  5.19723484172112E+00  5.19723484172112E+00  5.19723484172112E+00
 Stress tensor in cartesian coordinates (strten) [Ha/bohr^3]
  7.25475190297024E-04  0.00000000000000E+00  0.00000000000000E+00
  0.00000000000000E+00  7.25475190297045E-04  0.00000000000000E+00
  0.00000000000000E+00  0.00000000000000E+00  7.25475190297052E-04
 Total energy (etotal) [Ha]= -1.35244141828193E+02

[...]

 Difference of energy with previous step (new-old):
           Absolute (Ha)= 1.73106E-03
           Relative     = 1.27996E-05

[...]

 Difference of energy with previous step (new-old):
           Absolute (Ha)=-3.62402E-03
           Relative     =-2.67963E-05

[...]

--- Iteration: ( 9/10) Internal Cycle: (1/1)

[...]

--- Iteration: (10/10) Internal Cycle: (1/1)

---SELF-CONSISTENT-FIELD CONVERGENCE--------------------------------------------

     iter   Etot(hartree)      deltaE(h)  residm     vres2
 ETOT  1  -135.24135341696    -1.352E+02 5.174E-12 3.175E-05
 ETOT  2  -135.24135341675     2.018E-10 7.460E-13 2.940E-05
 ETOT  3  -135.24135343289    -1.614E-08 4.011E-10 4.583E-08

 At SCF step    3, etot is converged :
  for the second time, diff in etot=  1.614E-08 < toldfe=  1.000E-06

[...]

 Integrated electronic density in atomic spheres:
 Atom  Sphere_radius  Integrated_density
    1        2.00000         15.26924273

---OUTPUT-----------------------------------------------------------------------

 Cartesian coordinates (xcart) [bohr]
  0.00000000000000E+00  0.00000000000000E+00  0.00000000000000E+00
 Reduced coordinates (xred)
  0.00000000000000E+00  0.00000000000000E+00  0.00000000000000E+00
 Cartesian forces (fcart) [Ha/bohr]; max,rms= 0.00000E+00 0.00000E+00 (free atoms)
 -0.00000000000000E+00 -0.00000000000000E+00 -0.00000000000000E+00
 Reduced forces (fred)
  0.00000000000000E+00  0.00000000000000E+00  0.00000000000000E+00
 Scale of Primitive Cell (acell) [bohr]
  7.25512869981157E+00  7.25512869981157E+00  7.25512869981157E+00
 Real space primitive translations (rprimd) [bohr]
  0.00000000000000E+00  3.62756434990578E+00  3.62756434990578E+00
  3.62756434990578E+00  0.00000000000000E+00  3.62756434990578E+00
  3.62756434990578E+00  3.62756434990578E+00  0.00000000000000E+00
 Unitary Cell Volume (ucvol) [Bohr^3]=  9.54718572722269E+01
 Angles (23,13,12)= [degrees]
  6.00000000000000E+01  6.00000000000000E+01  6.00000000000000E+01
 Lengths [Bohr]
  5.13015070201790E+00  5.13015070201790E+00  5.13015070201790E+00
 Stress tensor in cartesian coordinates (strten) [Ha/bohr^3]
 -2.65342796512691E-07  0.00000000000000E+00  0.00000000000000E+00
  0.00000000000000E+00 -2.65342796540446E-07  0.00000000000000E+00
  0.00000000000000E+00  0.00000000000000E+00 -2.65342796484935E-07
 Total energy (etotal) [Ha]= -1.35241353432889E+02

 Difference of energy with previous step (new-old):
           Absolute (Ha)= 7.02914E-09
           Relative     = 5.19748E-11

 At Broyd/MD step  10, gradients are converged :
  max grad (force/stress) = 2.6534E-05 < tolmxf= 5.0000E-05 ha/bohr (free atoms)

 ----iterations are completed or convergence reached----

 Mean square residual over all n,k,spin=   8.2000E-11; max=  4.0110E-10
 reduced coordinates (array xred) for    1 atoms
       0.000000000000      0.000000000000      0.000000000000
 rms dE/dt=  0.0000E+00; max dE/dt=  0.0000E+00; dE/dt below (all hartree)
    1       0.000000000000      0.000000000000      0.000000000000

 cartesian coordinates (angstrom) at end:
    1      0.00000000000000     0.00000000000000     0.00000000000000

 cartesian forces (hartree/bohr) at end:
    1     -0.00000000000000    -0.00000000000000    -0.00000000000000
 frms,max,avg= 0.0000000E+00 0.0000000E+00   0.000E+00  0.000E+00  0.000E+00 h/b

 cartesian forces (eV/Angstrom) at end:
    1     -0.00000000000000    -0.00000000000000    -0.00000000000000
 frms,max,avg= 0.0000000E+00 0.0000000E+00   0.000E+00  0.000E+00  0.000E+00 e/A
 length scales=  7.255128699812  7.255128699812  7.255128699812 bohr
              =  3.839248753327  3.839248753327  3.839248753327 angstroms
 prteigrs : about to open file PdGeomOpt_o_EIG
 Fermi (or HOMO) energy (hartree) =   0.50665   Average Vxc (hartree)=  -0.51575
 Eigenvalues (hartree) for nkpt=   2  k points:
 kpt#   1, nband= 10, wtk=  0.75000, kpt= -0.2500  0.5000  0.0000 (reduced coord)
  -2.60372   -1.37029   -1.36309   -1.36066    0.32193    0.35023    0.40999    0.44206
   0.50665    0.64393
 prteigrs : prtvol=0 or 1, do not print more k-points.

 Components of total free energy (in Hartree) :

    Kinetic energy  =  4.49972315849295E+01
    Hartree energy  =  2.47713631765673E+01
    XC energy       = -2.11469810064765E+01
    Ewald energy    = -1.02375531398323E+02
    PspCore energy  =  4.91935970304845E+00
    Loc. psp. energy= -8.80243799071918E+01
    NL   psp  energy=  1.61758441455729E+00
    >>>>>>>>> Etotal= -1.35241353432889E+02

 Other information on the energy :
    Total energy(eV)= -3.68010438200828E+03 ; Band energy (Ha)=  -9.3624169285E+00

 Cartesian components of stress tensor (hartree/bohr^3)
  sigma(1 1)= -2.65342797E-07  sigma(3 2)=  0.00000000E+00
  sigma(2 2)= -2.65342797E-07  sigma(3 1)=  0.00000000E+00
  sigma(3 3)= -2.65342796E-07  sigma(2 1)=  0.00000000E+00

-Cartesian components of stress tensor (GPa)         [Pressure=  7.8067E-03 GPa]
- sigma(1 1)= -7.80665328E-03  sigma(3 2)=  0.00000000E+00
- sigma(2 2)= -7.80665328E-03  sigma(3 1)=  0.00000000E+00
- sigma(3 3)= -7.80665328E-03  sigma(2 1)=  0.00000000E+00

== END DATASET(S) ==============================================================

 -outvars: echo values of variables after computation  --------
            acell      7.2551286998E+00  7.2551286998E+00  7.2551286998E+00 Bohr
              amu      1.06420000E+02
           diemac      1.20000000E+01
          dilatmx      1.05000000E+00
             ecut      2.00000000E+01 Hartree
           ecutsm      5.00000000E-01 Hartree
           etotal     -1.3524135343E+02
            fcart     -0.0000000000E+00 -0.0000000000E+00 -0.0000000000E+00
-          fftalg         112
           getwfk          -1
           ionmov           2
              ixc          11
              kpt     -2.50000000E-01  5.00000000E-01  0.00000000E+00
                      -2.50000000E-01  0.00000000E+00  0.00000000E+00
         kptrlatt        2   -2    2     -2    2    2     -2   -2    2
          kptrlen      1.47000000E+01
P           mkmem           2
            natom           1
            nband          10
            ngfft          24      24      24
             nkpt           2
            nstep          20
             nsym          48
            ntime          10
           ntypat           1
              occ      2.000000  2.000000  2.000000  2.000000  2.000000  2.000000
                       2.000000  2.000000  2.000000  0.000000
          optcell           1
            rprim      0.0000000000E+00  5.0000000000E-01  5.0000000000E-01
                       5.0000000000E-01  0.0000000000E+00  5.0000000000E-01
                       5.0000000000E-01  5.0000000000E-01  0.0000000000E+00
           shiftk      5.00000000E-01  5.00000000E-01  5.00000000E-01
          spgroup         225
           strten     -2.6534279651E-07 -2.6534279654E-07 -2.6534279648E-07
                       0.0000000000E+00  0.0000000000E+00  0.0000000000E+00
           symrel      1  0  0   0  1  0   0  0  1      -1  0  0   0 -1  0   0  0 -1
                       0 -1  1   0 -1  0   1 -1  0       0  1 -1   0  1  0  -1  1  0
                      -1  0  0  -1  0  1  -1  1  0       1  0  0   1  0 -1   1 -1  0
                       0  1 -1   1  0 -1   0  0 -1       0 -1  1  -1  0  1   0  0  1
                      -1  0  0  -1  1  0  -1  0  1       1  0  0   1 -1  0   1  0 -1
                       0 -1  1   1 -1  0   0 -1  0       0  1 -1  -1  1  0   0  1  0
                       1  0  0   0  0  1   0  1  0      -1  0  0   0  0 -1   0 -1  0
                       0  1 -1   0  0 -1   1  0 -1       0 -1  1   0  0  1  -1  0  1
                      -1  0  1  -1  1  0  -1  0  0       1  0 -1   1 -1  0   1  0  0
                       0 -1  0   1 -1  0   0 -1  1       0  1  0  -1  1  0   0  1 -1
                       1  0 -1   0  0 -1   0  1 -1      -1  0  1   0  0  1   0 -1  1
                       0  1  0   0  0  1   1  0  0       0 -1  0   0  0 -1  -1  0  0
                       1  0 -1   0  1 -1   0  0 -1      -1  0  1   0 -1  1   0  0  1
                       0 -1  0   0 -1  1   1 -1  0       0  1  0   0  1 -1  -1  1  0
                      -1  0  1  -1  0  0  -1  1  0       1  0 -1   1  0  0   1 -1  0
                       0  1  0   1  0  0   0  0  1       0 -1  0  -1  0  0   0  0 -1
                       0  0 -1   0  1 -1   1  0 -1       0  0  1   0 -1  1  -1  0  1
                       1 -1  0   0 -1  1   0 -1  0      -1  1  0   0  1 -1   0  1  0
                       0  0  1   1  0  0   0  1  0       0  0 -1  -1  0  0   0 -1  0
                      -1  1  0  -1  0  0  -1  0  1       1 -1  0   1  0  0   1  0 -1
                       0  0  1   0  1  0   1  0  0       0  0 -1   0 -1  0  -1  0  0
                       1 -1  0   0 -1  0   0 -1  1      -1  1  0   0  1  0   0  1 -1
                       0  0 -1   1  0 -1   0  1 -1       0  0  1  -1  0  1   0 -1  1
                      -1  1  0  -1  0  1  -1  0  0       1 -1  0   1  0 -1   1  0  0
           toldfe      1.00000000E-06 Hartree
            typat      1
              wtk        0.75000    0.25000
            znucl       46.00000

-
-  as well as % of the time and number of calls for node 0-
-<BEGIN_TIMER mpi_nprocs = 1, omp_nthreads = 1, mpi_rank = 0>
- cpu_time =            4.2, wall_time =            5.9
-
-                                                                  (-1=no count)
- fourwf%(pot)                   1.719  41.2      1.694  28.9           7368      -1.00        1.01       1.01
- nonlop(apply)                  0.453  10.9      0.363   6.2           7368      -1.00        1.25       1.25
- pspini                         0.406   9.7      0.518   8.8              1      -1.00        0.78       0.78
- xc:pot/=fourdp                 0.281   6.7      0.273   4.6             69      -1.00        1.03       1.03
- fourdp                         0.188   4.5      0.198   3.4            857      -1.00        0.95       0.95
- projbd                         0.188   4.5      0.247   4.2          11576      -1.00        0.76       0.76
- mkcore                         0.125   3.0      0.083   1.4             30      -1.00        1.51       1.51
- timing timab                   0.125   3.0      0.121   2.1              9      -1.00        1.03       1.03
- fourwf%(den)                   0.109   2.6      0.146   2.5           1062      -1.00        0.75       0.75
- vtowfk(ssdiag)                 0.094   2.2      0.211   3.6             -1      -1.00        0.44       0.44
- stress                         0.078   1.9      0.043   0.7             10      -1.00        1.82       1.82
- forces                         0.031   0.7      0.059   1.0             10      -1.00        0.53       0.53
- nonlop(forstr)                 0.031   0.7      0.037   0.6            180      -1.00        0.84       0.84
- invars2                        0.031   0.7      0.040   0.7              1      -1.00        0.78       0.78
- others (99)                    0.047   1.1      0.485   8.3             -1      -1.00        0.10       0.10
-<END_TIMER>
-
- subtotal                       3.906  93.6      4.518  77.0                                  0.86       0.86

- as well as % of the total time and number of calls

-<BEGIN_TIMER mpi_nprocs = 1, omp_nthreads = 1, mpi_rank = world>
- cpu_time =           4.2, wall_time =           5.9
-
-                                                                  (-1=no count)
- fourwf%(pot)                   1.719  41.2      1.694  28.9           7368      -1.00        1.01       1.01
- nonlop(apply)                  0.453  10.9      0.363   6.2           7368      -1.00        1.25       1.25
- pspini                         0.406   9.7      0.518   8.8              1      -1.00        0.78       0.78
- xc:pot/=fourdp                 0.281   6.7      0.273   4.6             69      -1.00        1.03       1.03
- fourdp                         0.188   4.5      0.198   3.4            857      -1.00        0.95       0.95
- projbd                         0.188   4.5      0.247   4.2          11576      -1.00        0.76       0.76
- mkcore                         0.125   3.0      0.083   1.4             30      -1.00        1.51       1.51
- timing timab                   0.125   3.0      0.121   2.1              9      -1.00        1.03       1.03
- fourwf%(den)                   0.109   2.6      0.146   2.5           1062      -1.00        0.75       0.75
- vtowfk(ssdiag)                 0.094   2.2      0.211   3.6             -1      -1.00        0.44       0.44
- stress                         0.078   1.9      0.043   0.7             10      -1.00        1.82       1.82
- forces                         0.031   0.7      0.059   1.0             10      -1.00        0.53       0.53
- nonlop(forstr)                 0.031   0.7      0.037   0.6            180      -1.00        0.84       0.84
- invars2                        0.031   0.7      0.040   0.7              1      -1.00        0.78       0.78
- others (99)                    0.047   1.1      0.485   8.3             -1      -1.00        0.10       0.10
-<END_TIMER>

- subtotal                       3.906  93.6      4.518  77.0                                  0.86       0.86

 Suggested references for the acknowledgment of ABINIT usage.

 Calculation completed.
.Delivered   0 WARNINGs and  10 COMMENTs to log file.