.Version 8.6.3 of ABINIT
.(sequential version, prepared for a x86_64_linux_gnu5.4 computer)

 ABINIT is a project of the Universite Catholique de Louvain,
 Corning Inc. and other collaborators, see ~abinit/doc/developers/contributors.txt .
 Please read ~abinit/doc/users/acknowledgments.html for suggested
 acknowledgments of the ABINIT effort.

.Starting date : Sat 21 Apr 2018.
- ( at 09h12 )

- input  file    -> PdGeomOpt.in
- output file    -> PdGeomOpt.out
- root for input  files -> PdGeomOpt_i
- root for output files -> PdGeomOpt_o

 Symmetries : space group Fm -3 m (#225); Bravais cF (face-center cubic)
     intxc =       0    ionmov =       2      iscf =       7    lmnmax =       6
     lnmax =       6     mgfft =      15  mpssoang =       3    mqgrid =    3001
     natom =       1  nloc_mem =       1    nspden =       1   nspinor =       1
    nsppol =       1      nsym =      48    n1xccc =    2501    ntypat =       1
    occopt =       1   xclevel =       2
-    mband =          10        mffmem =           1         mkmem =           2
       mpw =         126          nfft =        3375          nkpt =           2
  Rough estimation (10% accuracy) of disk space for files :

------------- Echo of variables that govern the present computation ------------
-
- outvars: echo of selected default values
-   iomode0 =  0 , fftalg0 =112 , wfoptalg0 =  0
-
- outvars: echo of global parameters not present in the input file
-  max_nthreads =    0
-
 -outvars: echo values of preprocessed input variables --------
            acell      7.3500000000E+00  7.3500000000E+00  7.3500000000E+00 Bohr
              amu      1.06420000E+02
           diemac      1.20000000E+01
          dilatmx      1.05000000E+00
             ecut      8.00000000E+00 Hartree
           ecutsm      5.00000000E-01 Hartree
-          fftalg         112
           getwfk          -1
           ionmov           2
              ixc          11
              kpt     -2.50000000E-01  5.00000000E-01  0.00000000E+00
                      -2.50000000E-01  0.00000000E+00  0.00000000E+00
         kptrlatt        2   -2    2     -2    2    2     -2   -2    2
          kptrlen      1.47000000E+01
P           mkmem           2
            natom           1
            nband          10
            ngfft          15      15      15
             nkpt           2
            nstep          10
             nsym          48
            ntime          10
           ntypat           1
              occ      2.000000  2.000000  2.000000  2.000000  2.000000  2.000000
                       2.000000  2.000000  2.000000  0.000000
          optcell           1
            rprim      0.0000000000E+00  5.0000000000E-01  5.0000000000E-01
                       5.0000000000E-01  0.0000000000E+00  5.0000000000E-01
                       5.0000000000E-01  5.0000000000E-01  0.0000000000E+00
           shiftk      5.00000000E-01  5.00000000E-01  5.00000000E-01
          spgroup         225
           symrel      1  0  0   0  1  0   0  0  1      -1  0  0   0 -1  0   0  0 -1
                       0 -1  1   0 -1  0   1 -1  0       0  1 -1   0  1  0  -1  1  0
                      -1  0  0  -1  0  1  -1  1  0       1  0  0   1  0 -1   1 -1  0
                       0  1 -1   1  0 -1   0  0 -1       0 -1  1  -1  0  1   0  0  1
                      -1  0  0  -1  1  0  -1  0  1       1  0  0   1 -1  0   1  0 -1
                       0 -1  1   1 -1  0   0 -1  0       0  1 -1  -1  1  0   0  1  0
                       1  0  0   0  0  1   0  1  0      -1  0  0   0  0 -1   0 -1  0
                       0  1 -1   0  0 -1   1  0 -1       0 -1  1   0  0  1  -1  0  1
                      -1  0  1  -1  1  0  -1  0  0       1  0 -1   1 -1  0   1  0  0
                       0 -1  0   1 -1  0   0 -1  1       0  1  0  -1  1  0   0  1 -1
                       1  0 -1   0  0 -1   0  1 -1      -1  0  1   0  0  1   0 -1  1
                       0  1  0   0  0  1   1  0  0       0 -1  0   0  0 -1  -1  0  0
                       1  0 -1   0  1 -1   0  0 -1      -1  0  1   0 -1  1   0  0  1
                       0 -1  0   0 -1  1   1 -1  0       0  1  0   0  1 -1  -1  1  0
                      -1  0  1  -1  0  0  -1  1  0       1  0 -1   1  0  0   1 -1  0
                       0  1  0   1  0  0   0  0  1       0 -1  0  -1  0  0   0  0 -1
                       0  0 -1   0  1 -1   1  0 -1       0  0  1   0 -1  1  -1  0  1
                       1 -1  0   0 -1  1   0 -1  0      -1  1  0   0  1 -1   0  1  0
                       0  0  1   1  0  0   0  1  0       0  0 -1  -1  0  0   0 -1  0
                      -1  1  0  -1  0  0  -1  0  1       1 -1  0   1  0  0   1  0 -1
                       0  0  1   0  1  0   1  0  0       0  0 -1   0 -1  0  -1  0  0
                       1 -1  0   0 -1  0   0 -1  1      -1  1  0   0  1  0   0  1 -1
                       0  0 -1   1  0 -1   0  1 -1       0  0  1  -1  0  1   0 -1  1
                      -1  1  0  -1  0  1  -1  0  0       1 -1  0   1  0 -1   1  0  0
           toldfe      1.00000000E-06 Hartree
            typat      1
              wtk        0.75000    0.25000
            znucl       46.00000

 chkinp: Checking input parameters for consistency.

== DATASET  1 ==================================================================
-   nproc =    1

 Real(R)+Recip(G) space primitive vectors, cartesian coordinates (Bohr,Bohr^-1):
 R(1)=  0.0000000  3.6750000  3.6750000  G(1)= -0.1360544  0.1360544  0.1360544
 R(2)=  3.6750000  0.0000000  3.6750000  G(2)=  0.1360544 -0.1360544  0.1360544
 R(3)=  3.6750000  3.6750000  0.0000000  G(3)=  0.1360544  0.1360544 -0.1360544
 Unit cell volume ucvol=  9.9266344E+01 bohr^3
 Angles (23,13,12)=  6.00000000E+01  6.00000000E+01  6.00000000E+01 degrees

 getcut: wavevector=  0.0000  0.0000  0.0000  ngfft=  15  15  15
         ecut(hartree)=      8.820   => boxcut(ratio)=   2.02517

--- Pseudopotential description ------------------------------------------------
- pspini: atom type   1  psp file is ../../../Psps_for_tests/Pd.psp8
- pspatm: opening atomic psp file    ../../../Psps_for_tests/Pd.psp8
- Pd    ONCVPSP-3.2.3.1  r_core=   1.41052   1.46191   1.55175
- 46.00000  18.00000    170510                znucl, zion, pspdat
    8   11    2    4       600   0.00000      pspcod,pspxc,lmax,lloc,mmax,r2well
    5.99000000000000    7.00000000000000    0.00000000000000   rchrg,fchrg,qchrg
     nproj     2     2     2
     extension_switch     1
  pspatm : epsatm=   26.09224486
         --- l  ekb(1:nproj) -->
             0    7.845850   -2.282160
             1    3.261104   -0.686948
             2   -1.134855   -0.401224
 pspatm: atomic psp has been read  and splines computed

   4.69660407E+02                                ecore*ucvol(ha*bohr**3)

_setup2: Arith. and geom. avg. npw (full set) are     122.250     122.231

=== [ionmov= 2] Broyden-Fletcher-Goldfard-Shanno method (forces)

--- Iteration: ( 1/10) Internal Cycle: (1/1)

---SELF-CONSISTENT-FIELD CONVERGENCE--------------------------------------------

     iter   Etot(hartree)      deltaE(h)  residm     vres2
 ETOT  1  -128.68008026099    -1.287E+02 9.247E-02 9.026E+02
 ETOT  2  -129.92746613531    -1.247E+00 1.689E-03 1.709E+02
 ETOT  3  -130.18256770872    -2.551E-01 8.669E-03 1.203E+00
 ETOT  4  -130.18359790405    -1.030E-03 2.231E-05 5.946E-02
 ETOT  5  -130.18363736546    -3.946E-05 1.251E-06 1.411E-04
 ETOT  6  -130.18363716253     2.029E-07 2.289E-09 1.373E-06
 ETOT  7  -130.18363709764     6.489E-08 7.896E-11 1.297E-08

 At SCF step    7, etot is converged :
  for the second time, diff in etot=  6.489E-08 < toldfe=  1.000E-06

 Cartesian components of stress tensor (hartree/bohr^3)
  sigma(1 1)= -1.35131165E-02  sigma(3 2)=  0.00000000E+00
  sigma(2 2)= -1.35131165E-02  sigma(3 1)=  0.00000000E+00
  sigma(3 3)= -1.35131165E-02  sigma(2 1)=  0.00000000E+00

 Integrated electronic density in atomic spheres:
 Atom  Sphere_radius  Integrated_density
    1        2.00000         14.90182125

---OUTPUT-----------------------------------------------------------------------

 Cartesian coordinates (xcart) [bohr]
  0.00000000000000E+00  0.00000000000000E+00  0.00000000000000E+00
 Reduced coordinates (xred)
  0.00000000000000E+00  0.00000000000000E+00  0.00000000000000E+00
 Cartesian forces (fcart) [Ha/bohr]; max,rms= 0.00000E+00 0.00000E+00 (free atoms)
 -0.00000000000000E+00 -0.00000000000000E+00 -0.00000000000000E+00
 Reduced forces (fred)
  0.00000000000000E+00  0.00000000000000E+00  0.00000000000000E+00
 Scale of Primitive Cell (acell) [bohr]
  7.35000000000000E+00  7.35000000000000E+00  7.35000000000000E+00
 Real space primitive translations (rprimd) [bohr]
  0.00000000000000E+00  3.67500000000000E+00  3.67500000000000E+00
  3.67500000000000E+00  0.00000000000000E+00  3.67500000000000E+00
  3.67500000000000E+00  3.67500000000000E+00  0.00000000000000E+00
 Unitary Cell Volume (ucvol) [Bohr^3]=  9.92663437500000E+01
 Angles (23,13,12)= [degrees]
  6.00000000000000E+01  6.00000000000000E+01  6.00000000000000E+01
 Lengths [Bohr]
  5.19723484172112E+00  5.19723484172112E+00  5.19723484172112E+00
 Stress tensor in cartesian coordinates (strten) [Ha/bohr^3]
 -1.35131165128195E-02  0.00000000000000E+00  0.00000000000000E+00
  0.00000000000000E+00 -1.35131165128195E-02  0.00000000000000E+00
  0.00000000000000E+00  0.00000000000000E+00 -1.35131165128195E-02
 Total energy (etotal) [Ha]= -1.30183637097641E+02

[...]

 Difference of energy with previous step (new-old):
           Absolute (Ha)=-1.43500E-02
           Relative     =-1.10222E-04

[...]

 Difference of energy with previous step (new-old):
           Absolute (Ha)= 5.92086E-02
           Relative     = 4.54862E-04

[...]

--- Iteration: ( 9/10) Internal Cycle: (1/1)

[...]

 Difference of energy with previous step (new-old):
           Absolute (Ha)=-6.68805E-03
           Relative     =-5.13627E-05

--- Iteration: (10/10) Internal Cycle: (1/1)

---SELF-CONSISTENT-FIELD CONVERGENCE--------------------------------------------

     iter   Etot(hartree)      deltaE(h)  residm     vres2
 ETOT  1  -130.21521301479    -1.302E+02 5.663E-08 1.696E-01
 ETOT  2  -130.21545299346    -2.400E-04 3.921E-09 3.241E-02
 ETOT  3  -130.21550296839    -4.997E-05 1.548E-06 1.808E-05
 ETOT  4  -130.21550290399     6.439E-08 8.019E-10 6.397E-07
 ETOT  5  -130.21550291945    -1.545E-08 4.218E-11 2.341E-09

 At SCF step    5, etot is converged :
  for the second time, diff in etot=  1.545E-08 < toldfe=  1.000E-06

[...]

 Integrated electronic density in atomic spheres:
 Atom  Sphere_radius  Integrated_density
    1        2.00000         14.73380311

---OUTPUT-----------------------------------------------------------------------

 Cartesian coordinates (xcart) [bohr]
  0.00000000000000E+00  0.00000000000000E+00  0.00000000000000E+00
 Reduced coordinates (xred)
  0.00000000000000E+00  0.00000000000000E+00  0.00000000000000E+00
 Cartesian forces (fcart) [Ha/bohr]; max,rms= 0.00000E+00 0.00000E+00 (free atoms)
 -0.00000000000000E+00 -0.00000000000000E+00 -0.00000000000000E+00
 Reduced forces (fred)
  0.00000000000000E+00  0.00000000000000E+00  0.00000000000000E+00
 Scale of Primitive Cell (acell) [bohr]
  7.44839630726466E+00  7.44839630726466E+00  7.44839630726466E+00
 Real space primitive translations (rprimd) [bohr]
  0.00000000000000E+00  3.72419815363233E+00  3.72419815363233E+00
  3.72419815363233E+00  0.00000000000000E+00  3.72419815363233E+00
  3.72419815363233E+00  3.72419815363233E+00  0.00000000000000E+00
 Unitary Cell Volume (ucvol) [Bohr^3]=  1.03306663902039E+02
 Angles (23,13,12)= [degrees]
  6.00000000000000E+01  6.00000000000000E+01  6.00000000000000E+01
 Lengths [Bohr]
  5.26681153783168E+00  5.26681153783168E+00  5.26681153783168E+00
 Stress tensor in cartesian coordinates (strten) [Ha/bohr^3]
  1.95513403964197E-03  0.00000000000000E+00  0.00000000000000E+00
  0.00000000000000E+00  1.95513403964195E-03  0.00000000000000E+00
  0.00000000000000E+00  0.00000000000000E+00  1.95513403964194E-03
 Total energy (etotal) [Ha]= -1.30215502919447E+02

 Difference of energy with previous step (new-old):
           Absolute (Ha)= 1.12501E-05
           Relative     = 8.63964E-08

 fconv : WARNING -
  ntime=   10 was not enough Broyd/MD steps to converge gradients:
  max grad (force/stress) = 1.9551E-01 > tolmxf= 5.0000E-05 ha/bohr (free atoms)

 ----iterations are completed or convergence reached----

 Mean square residual over all n,k,spin=   5.4739E-12; max=  4.2181E-11
 reduced coordinates (array xred) for    1 atoms
       0.000000000000      0.000000000000      0.000000000000
 rms dE/dt=  0.0000E+00; max dE/dt=  0.0000E+00; dE/dt below (all hartree)
    1       0.000000000000      0.000000000000      0.000000000000

 cartesian coordinates (angstrom) at end:
    1      0.00000000000000     0.00000000000000     0.00000000000000

 cartesian forces (hartree/bohr) at end:
    1     -0.00000000000000    -0.00000000000000    -0.00000000000000
 frms,max,avg= 0.0000000E+00 0.0000000E+00   0.000E+00  0.000E+00  0.000E+00 h/b

 cartesian forces (eV/Angstrom) at end:
    1     -0.00000000000000    -0.00000000000000    -0.00000000000000
 frms,max,avg= 0.0000000E+00 0.0000000E+00   0.000E+00  0.000E+00  0.000E+00 e/A
 length scales=  7.448396307265  7.448396307265  7.448396307265 bohr
              =  3.941521566350  3.941521566350  3.941521566350 angstroms
 prteigrs : about to open file PdGeomOpt_o_EIG
 Fermi (or HOMO) energy (hartree) =   0.59483   Average Vxc (hartree)=  -0.51683
 Eigenvalues (hartree) for nkpt=   2  k points:
 kpt#   1, nband= 10, wtk=  0.75000, kpt= -0.2500  0.5000  0.0000 (reduced coord)
  -3.21173   -1.78465   -1.78347   -1.77817    0.34301    0.39813    0.45892    0.51827
   0.59483    0.68534
 prteigrs : prtvol=0 or 1, do not print more k-points.

 Components of total free energy (in Hartree) :

    Kinetic energy  =  3.70064926632832E+01
    Hartree energy  =  1.85586306004453E+01
    XC energy       = -1.98730914842058E+01
    Ewald energy    = -9.97191375654934E+01
    PspCore energy  =  4.54627407081450E+00
    Loc. psp. energy= -7.43628780911677E+01
    NL   psp  energy=  3.62820688687714E+00
    >>>>>>>>> Etotal= -1.30215502919447E+02

 Other information on the energy :
    Total energy(eV)= -3.54334403446402E+03 ; Band energy (Ha)=  -1.2525252725E+01

 Cartesian components of stress tensor (hartree/bohr^3)
  sigma(1 1)=  1.95513404E-03  sigma(3 2)=  0.00000000E+00
  sigma(2 2)=  1.95513404E-03  sigma(3 1)=  0.00000000E+00
  sigma(3 3)=  1.95513404E-03  sigma(2 1)=  0.00000000E+00

-Cartesian components of stress tensor (GPa)         [Pressure= -5.7522E+01 GPa]
- sigma(1 1)=  5.75220197E+01  sigma(3 2)=  0.00000000E+00
- sigma(2 2)=  5.75220197E+01  sigma(3 1)=  0.00000000E+00
- sigma(3 3)=  5.75220197E+01  sigma(2 1)=  0.00000000E+00

== END DATASET(S) ==============================================================

 -outvars: echo values of variables after computation  --------
            acell      7.4483963073E+00  7.4483963073E+00  7.4483963073E+00 Bohr
              amu      1.06420000E+02
           diemac      1.20000000E+01
          dilatmx      1.05000000E+00
             ecut      8.00000000E+00 Hartree
           ecutsm      5.00000000E-01 Hartree
           etotal     -1.3021550292E+02
            fcart     -0.0000000000E+00 -0.0000000000E+00 -0.0000000000E+00
-          fftalg         112
           getwfk          -1
           ionmov           2
              ixc          11
              kpt     -2.50000000E-01  5.00000000E-01  0.00000000E+00
                      -2.50000000E-01  0.00000000E+00  0.00000000E+00
         kptrlatt        2   -2    2     -2    2    2     -2   -2    2
          kptrlen      1.47000000E+01
P           mkmem           2
            natom           1
            nband          10
            ngfft          15      15      15
             nkpt           2
            nstep          10
             nsym          48
            ntime          10
           ntypat           1
              occ      2.000000  2.000000  2.000000  2.000000  2.000000  2.000000
                       2.000000  2.000000  2.000000  0.000000
          optcell           1
            rprim      0.0000000000E+00  5.0000000000E-01  5.0000000000E-01
                       5.0000000000E-01  0.0000000000E+00  5.0000000000E-01
                       5.0000000000E-01  5.0000000000E-01  0.0000000000E+00
           shiftk      5.00000000E-01  5.00000000E-01  5.00000000E-01
          spgroup         225
           strten      1.9551340396E-03  1.9551340396E-03  1.9551340396E-03
                       0.0000000000E+00  0.0000000000E+00  0.0000000000E+00
           symrel      1  0  0   0  1  0   0  0  1      -1  0  0   0 -1  0   0  0 -1
                       0 -1  1   0 -1  0   1 -1  0       0  1 -1   0  1  0  -1  1  0
                      -1  0  0  -1  0  1  -1  1  0       1  0  0   1  0 -1   1 -1  0
                       0  1 -1   1  0 -1   0  0 -1       0 -1  1  -1  0  1   0  0  1
                      -1  0  0  -1  1  0  -1  0  1       1  0  0   1 -1  0   1  0 -1
                       0 -1  1   1 -1  0   0 -1  0       0  1 -1  -1  1  0   0  1  0
                       1  0  0   0  0  1   0  1  0      -1  0  0   0  0 -1   0 -1  0
                       0  1 -1   0  0 -1   1  0 -1       0 -1  1   0  0  1  -1  0  1
                      -1  0  1  -1  1  0  -1  0  0       1  0 -1   1 -1  0   1  0  0
                       0 -1  0   1 -1  0   0 -1  1       0  1  0  -1  1  0   0  1 -1
                       1  0 -1   0  0 -1   0  1 -1      -1  0  1   0  0  1   0 -1  1
                       0  1  0   0  0  1   1  0  0       0 -1  0   0  0 -1  -1  0  0
                       1  0 -1   0  1 -1   0  0 -1      -1  0  1   0 -1  1   0  0  1
                       0 -1  0   0 -1  1   1 -1  0       0  1  0   0  1 -1  -1  1  0
                      -1  0  1  -1  0  0  -1  1  0       1  0 -1   1  0  0   1 -1  0
                       0  1  0   1  0  0   0  0  1       0 -1  0  -1  0  0   0  0 -1
                       0  0 -1   0  1 -1   1  0 -1       0  0  1   0 -1  1  -1  0  1
                       1 -1  0   0 -1  1   0 -1  0      -1  1  0   0  1 -1   0  1  0
                       0  0  1   1  0  0   0  1  0       0  0 -1  -1  0  0   0 -1  0
                      -1  1  0  -1  0  0  -1  0  1       1 -1  0   1  0  0   1  0 -1
                       0  0  1   0  1  0   1  0  0       0  0 -1   0 -1  0  -1  0  0
                       1 -1  0   0 -1  0   0 -1  1      -1  1  0   0  1  0   0  1 -1
                       0  0 -1   1  0 -1   0  1 -1       0  0  1  -1  0  1   0 -1  1
                      -1  1  0  -1  0  1  -1  0  0       1 -1  0   1  0 -1   1  0  0
           toldfe      1.00000000E-06 Hartree
            typat      1
              wtk        0.75000    0.25000
            znucl       46.00000

-
-  as well as % of the time and number of calls for node 0-
-<BEGIN_TIMER mpi_nprocs = 1, omp_nthreads = 1, mpi_rank = 0>
- cpu_time =            1.6, wall_time =            1.9
-
-                                                                  (-1=no count)
- pspini                         0.359  21.9      0.353  18.5              1      -1.00        1.02       1.02
- fourwf%(pot)                   0.312  19.0      0.374  19.6           7354      -1.00        0.84       0.84
- timing timab                   0.125   7.6      0.127   6.6              8      -1.00        0.98       0.98
- xc:pot/=fourdp                 0.109   6.7      0.063   3.3             71      -1.00        1.74       1.74
- vtowfk(ssdiag)                 0.109   6.7      0.064   3.4             -1      -1.00        1.71       1.71
- getghc-other                   0.094   5.7      0.064   3.4             -1      -1.00        1.46       1.46
- nonlop(apply)                  0.078   4.8      0.123   6.4           7354      -1.00        0.64       0.64
- projbd                         0.062   3.8      0.077   4.0          11468      -1.00        0.81       0.81
- fourdp                         0.031   1.9      0.025   1.3            883      -1.00        1.25       1.25
- mkcore                         0.016   1.0      0.011   0.6             30      -1.00        1.42       1.42
- abinit(2)                      0.016   1.0      0.029   1.5              1      -1.00        0.54       0.54
- forces                         0.016   1.0      0.011   0.6             10      -1.00        1.42       1.42
- others (101)                   0.062   3.8      0.101   5.3             -1      -1.00        0.62       0.62
-<END_TIMER>
-
- subtotal                       1.391  84.8      1.422  74.5                                  0.98       0.98

- as well as % of the total time and number of calls

-<BEGIN_TIMER mpi_nprocs = 1, omp_nthreads = 1, mpi_rank = world>
- cpu_time =           1.6, wall_time =           1.9
-
-                                                                  (-1=no count)
- pspini                         0.359  21.9      0.353  18.5              1      -1.00        1.02       1.02
- fourwf%(pot)                   0.312  19.0      0.374  19.6           7354      -1.00        0.84       0.84
- timing timab                   0.125   7.6      0.127   6.6              8      -1.00        0.98       0.98
- xc:pot/=fourdp                 0.109   6.7      0.063   3.3             71      -1.00        1.74       1.74
- vtowfk(ssdiag)                 0.109   6.7      0.064   3.4             -1      -1.00        1.71       1.71
- getghc-other                   0.094   5.7      0.064   3.4             -1      -1.00        1.46       1.46
- nonlop(apply)                  0.078   4.8      0.123   6.4           7354      -1.00        0.64       0.64
- projbd                         0.062   3.8      0.077   4.0          11468      -1.00        0.81       0.81
- fourdp                         0.031   1.9      0.025   1.3            883      -1.00        1.25       1.25
- mkcore                         0.016   1.0      0.011   0.6             30      -1.00        1.42       1.42
- abinit(2)                      0.016   1.0      0.029   1.5              1      -1.00        0.54       0.54
- forces                         0.016   1.0      0.011   0.6             10      -1.00        1.42       1.42
- others (101)                   0.062   3.8      0.101   5.3             -1      -1.00        0.62       0.62
-<END_TIMER>

- subtotal                       1.391  84.8      1.422  74.5                                  0.98       0.98

 Suggested references for the acknowledgment of ABINIT usage.

 Calculation completed.
.Delivered   2 WARNINGs and   1 COMMENTs to log file.