.Version 8.6.3 of ABINIT
.(sequential version, prepared for a x86_64_linux_gnu5.4 computer)

 ABINIT is a project of the Universite Catholique de Louvain,
 Corning Inc. and other collaborators, see ~abinit/doc/developers/contributors.txt .
 Please read ~abinit/doc/users/acknowledgments.html for suggested
 acknowledgments of the ABINIT effort.

.Starting date : Sat 21 Apr 2018.
- ( at 18h40 )

- input  file    -> RutileGeom3.in
- output file    -> RutileGeom3.out
- root for input  files -> RutileGeom3_i
- root for output files -> RutileGeom3_o

 Symmetries : space group P1 (#  1); Bravais aP (primitive triclinic)
     intxc =       0    ionmov =       2      iscf =       7    lmnmax =       2
     lnmax =       2     mgfft =      30  mpssoang =       3    mqgrid =    3001
     natom =       6  nloc_mem =       1    nspden =       1   nspinor =       1
    nsppol =       1      nsym =       1    n1xccc =    2501    ntypat =       2
    occopt =       1   xclevel =       1
-    mband =          17        mffmem =           1         mkmem =          16
       mpw =         794          nfft =       16200          nkpt =          16
  Rough estimation (10% accuracy) of disk space for files :

------------- Echo of variables that govern the present computation ------------
-
- outvars: echo of selected default values
-   iomode0 =  0 , fftalg0 =112 , wfoptalg0 =  0
-
- outvars: echo of global parameters not present in the input file
-  max_nthreads =    0
-
 -outvars: echo values of preprocessed input variables --------
            acell      8.6808000000E+00  5.5911000000E+00  8.6808000000E+00 Bohr
              amu      4.78800000E+01  1.59994000E+01
           diemac      1.20000000E+01
          dilatmx      1.20000000E+00
             ecut      8.00000000E+00 Hartree
           ecutsm      5.00000000E-01 Hartree
-          fftalg         112
           getwfk          -1
           ionmov           2
              kpt     -2.50000000E-01  5.00000000E-01  0.00000000E+00
                       5.00000000E-01 -2.50000000E-01  0.00000000E+00
                      -2.50000000E-01 -2.50000000E-01  2.50000000E-01
                      -2.50000000E-01  0.00000000E+00  0.00000000E+00
                      -2.50000000E-01  2.50000000E-01  2.50000000E-01
                       5.00000000E-01  5.00000000E-01  2.50000000E-01
                      -2.50000000E-01  5.00000000E-01  5.00000000E-01
                       0.00000000E+00 -2.50000000E-01  0.00000000E+00
                       2.50000000E-01 -2.50000000E-01  2.50000000E-01
                       5.00000000E-01 -2.50000000E-01  5.00000000E-01
                      -2.50000000E-01 -2.50000000E-01 -2.50000000E-01
                       5.00000000E-01  0.00000000E+00  2.50000000E-01
                      -2.50000000E-01  0.00000000E+00  5.00000000E-01
                       0.00000000E+00  5.00000000E-01  2.50000000E-01
                       0.00000000E+00 -2.50000000E-01  5.00000000E-01
                       0.00000000E+00  0.00000000E+00  2.50000000E-01
         kptrlatt        2   -2    2      0    4    0     -2   -2    2
          kptrlen      2.23644000E+01
P           mkmem          16
            natom           6
            nband          17
            ngfft          30      18      30
             nkpt          16
            nstep          10
             nsym           1
            ntime          10
           ntypat           2
              occ      2.000000  2.000000  2.000000  2.000000  2.000000  2.000000
                       2.000000  2.000000  2.000000  2.000000  2.000000  2.000000
                       2.000000  2.000000  2.000000  2.000000  0.000000
          optcell           1
           shiftk      5.00000000E-01  0.00000000E+00  5.00000000E-01
          spgroup           1
           toldfe      1.00000000E-04 Hartree
            typat      1  1  2  2  2  2
              wtk        0.06250    0.06250    0.06250    0.06250    0.06250    0.06250
                         0.06250    0.06250    0.06250    0.06250    0.06250    0.06250
                         0.06250    0.06250    0.06250    0.06250
           xangst      0.0000000000E+00  0.0000000000E+00  0.0000000000E+00
                       1.4793678043E+00  2.2968407562E+00  2.2968407562E+00
                       0.0000000000E+00  1.4240158683E+00  1.4240158683E+00
                       0.0000000000E+00  3.1696656440E+00  3.1696656440E+00
                       1.4793678043E+00  8.7282488785E-01  3.7208566245E+00
                       1.4793678043E+00  3.7208566245E+00  8.7282488785E-01
            xcart      0.0000000000E+00  0.0000000000E+00  0.0000000000E+00
                       2.7956000000E+00  4.3404000000E+00  4.3404000000E+00
                       0.0000000000E+00  2.6910000000E+00  2.6910000000E+00
                       0.0000000000E+00  5.9898000000E+00  5.9898000000E+00
                       2.7956000000E+00  1.6494000000E+00  7.0314000000E+00
                       2.7956000000E+00  7.0314000000E+00  1.6494000000E+00
             xred      0.0000000000E+00  0.0000000000E+00  0.0000000000E+00
                       3.2204405124E-01  7.7630519933E-01  5.0000000000E-01
                       0.0000000000E+00  4.8130063851E-01  3.0999447056E-01
                       0.0000000000E+00  1.0713097602E+00  6.9000552944E-01
                       3.2204405124E-01  2.9500456082E-01  8.0999447056E-01
                       3.2204405124E-01  1.2576058378E+00  1.9000552944E-01
            znucl       22.00000    8.00000

 chkinp: Checking input parameters for consistency.

== DATASET  1 ==================================================================
-   nproc =    1

 Real(R)+Recip(G) space primitive vectors, cartesian coordinates (Bohr,Bohr^-1):
 R(1)=  8.6808000  0.0000000  0.0000000  G(1)=  0.1151968  0.0000000  0.0000000
 R(2)=  0.0000000  5.5911000  0.0000000  G(2)=  0.0000000  0.1788557  0.0000000
 R(3)=  0.0000000  0.0000000  8.6808000  G(3)=  0.0000000  0.0000000  0.1151968
 Unit cell volume ucvol=  4.2132455E+02 bohr^3
 Angles (23,13,12)=  9.00000000E+01  9.00000000E+01  9.00000000E+01 degrees

 getcut: wavevector=  0.0000  0.0000  0.0000  ngfft=  30  18  30
         ecut(hartree)=     11.520   => boxcut(ratio)=   2.10709

--- Pseudopotential description ------------------------------------------------
- pspini: atom type   1  psp file is ../../../Psps_for_tests/22ti.pspnc
- pspatm: opening atomic psp file    ../../../Psps_for_tests/22ti.pspnc
-  Troullier-Martins psp for element  Ti        Thu Oct 27 17:33:40 EDT 1994
- 22.00000   4.00000    940714                znucl, zion, pspdat
    1    1    2    0      2001   0.00000      pspcod,pspxc,lmax,lloc,mmax,r2well
    0   5.166   8.509    0   2.4203472        l,e99.0,e99.9,nproj,rcpsp
   0.00000000   0.00000000   0.00000000   0.00000000     rms, ekb1, ekb2, epsatm
    1   2.285   3.944    1   2.9934301        l,e99.0,e99.9,nproj,rcpsp
   0.00000000   0.00000000   0.00000000   0.00000000     rms, ekb1, ekb2, epsatm
    2  20.947  27.069    1   1.9326638        l,e99.0,e99.9,nproj,rcpsp
   0.00000000   0.00000000   0.00000000   0.00000000     rms, ekb1, ekb2, epsatm
    2.82741504495369    0.09256629068341    1.82586447305099   rchrg,fchrg,qchrg
  pspatm : epsatm=   66.67453488
         --- l  ekb(1:nproj) -->
             1    0.915537
             2   -8.015692
 pspatm: atomic psp has been read  and splines computed

- pspini: atom type   2  psp file is ../../../Psps_for_tests/8o.pspnc
- pspatm: opening atomic psp file    ../../../Psps_for_tests/8o.pspnc
-  Troullier-Martins psp for element  O         Thu Oct 27 17:29:57 EDT 1994
-  8.00000   6.00000    940714                znucl, zion, pspdat
    1    1    1    1      2001   0.00000      pspcod,pspxc,lmax,lloc,mmax,r2well
    0   5.480  16.893    1   1.4482335        l,e99.0,e99.9,nproj,rcpsp
   0.00000000   0.00000000   0.00000000   0.00000000     rms, ekb1, ekb2, epsatm
    1  20.911  28.075    0   1.4482335        l,e99.0,e99.9,nproj,rcpsp
   0.00000000   0.00000000   0.00000000   0.00000000     rms, ekb1, ekb2, epsatm
    0.56990156784787    3.95561236318184    0.63894027514378   rchrg,fchrg,qchrg
  pspatm : epsatm=    1.57752239
         --- l  ekb(1:nproj) -->
             0    5.670783
 pspatm: atomic psp has been read  and splines computed

   4.46909310E+03                                ecore*ucvol(ha*bohr**3)

_setup2: Arith. and geom. avg. npw (full set) are     788.688     788.675

=== [ionmov= 2] Broyden-Fletcher-Goldfard-Shanno method (forces)

--- Iteration: ( 1/10) Internal Cycle: (1/1)

---SELF-CONSISTENT-FIELD CONVERGENCE--------------------------------------------

     iter   Etot(hartree)      deltaE(h)  residm     vres2
 ETOT  1  -66.060716537604    -6.606E+01 3.758E-02 1.500E+03
 ETOT  2  -66.569124690591    -5.084E-01 4.530E-02 9.676E+02
 ETOT  3  -67.369381102668    -8.003E-01 1.012E-02 1.343E+01
 ETOT  4  -67.379436994160    -1.006E-02 2.004E-03 6.721E-01
 ETOT  5  -67.380016713318    -5.797E-04 2.570E-04 1.888E-01
 ETOT  6  -67.380168636913    -1.519E-04 2.351E-04 1.280E-02
 ETOT  7  -67.380180119301    -1.148E-05 1.579E-04 4.857E-04
 ETOT  8  -67.380180665888    -5.466E-07 6.017E-05 5.700E-05

 At SCF step    8, etot is converged :
  for the second time, diff in etot=  5.466E-07 < toldfe=  1.000E-04

 Cartesian components of stress tensor (hartree/bohr^3)
  sigma(1 1)= -4.67806524E-03  sigma(3 2)=  9.79633379E-04
  sigma(2 2)= -4.62822199E-03  sigma(3 1)= -3.83725474E-04
  sigma(3 3)= -1.49435017E-02  sigma(2 1)= -7.02946719E-04

 Integrated electronic density in atomic spheres:
 Atom  Sphere_radius  Integrated_density
    1        2.00000          1.54117710
    2        2.00000          0.90314099
    3        2.00000          6.22470387
    4        2.00000          6.42949890
    5        2.00000          6.32230097
    6        2.00000          6.34984396

---OUTPUT-----------------------------------------------------------------------

 Cartesian coordinates (xcart) [bohr]
  0.00000000000000E+00  0.00000000000000E+00  0.00000000000000E+00
  2.79560000000000E+00  4.34040000000000E+00  4.34040000000000E+00
  0.00000000000000E+00  2.69100000000000E+00  2.69100000000000E+00
  0.00000000000000E+00  5.98980000000000E+00  5.98980000000000E+00
  2.79560000000000E+00  1.64940000000000E+00  7.03140000000000E+00
  2.79560000000000E+00  7.03140000000000E+00  1.64940000000000E+00
 Reduced coordinates (xred)
  0.00000000000000E+00  0.00000000000000E+00  0.00000000000000E+00
  3.22044051239517E-01  7.76305199334657E-01  5.00000000000000E-01
  0.00000000000000E+00  4.81300638514782E-01  3.09994470555709E-01
  0.00000000000000E+00  1.07130976015453E+00  6.90005529444291E-01
  3.22044051239517E-01  2.95004560819874E-01  8.09994470555709E-01
  3.22044051239517E-01  1.25760583784944E+00  1.90005529444291E-01
 Cartesian forces (fcart) [Ha/bohr]; max,rms= 1.50461E+00 5.32067E-01 (free atoms)
 -3.38232655592423E-01 -3.38332247517071E-01  1.44520545962564E+00
  2.80357843640932E-01 -1.52698979389149E-02  7.93461468049163E-03
 -2.97865181249361E-01  6.80547742780950E-02  1.95688464487778E-03
[...]
           Relative     = 9.09741E-03

--- Iteration: (10/10) Internal Cycle: (1/1)

---SELF-CONSISTENT-FIELD CONVERGENCE--------------------------------------------

     iter   Etot(hartree)      deltaE(h)  residm     vres2
 ETOT  1  -62.934478503813    -6.293E+01 6.676E+01 5.969E+03
 ETOT  2  -65.554375788560    -2.620E+00 1.779E-02 2.245E+03
 ETOT  3  -68.356384628844    -2.802E+00 2.587E-02 3.128E+02
 ETOT  4  -68.658074973183    -3.017E-01 1.481E-02 3.571E+01
 ETOT  5  -68.679818380887    -2.174E-02 7.233E-03 2.296E+01
 ETOT  6  -68.698785813991    -1.897E-02 1.514E-03 1.984E+00
 ETOT  7  -68.700759647605    -1.974E-03 1.080E-03 3.649E-01
 ETOT  8  -68.701046176300    -2.865E-04 5.603E-04 1.080E-01
 ETOT  9  -68.701130657745    -8.448E-05 1.408E-04 3.965E-03
 ETOT 10  -68.701134112884    -3.455E-06 1.390E-04 4.963E-04

 At SCF step   10, etot is converged :
  for the second time, diff in etot=  3.455E-06 < toldfe=  1.000E-04

[...]

 Integrated electronic density in atomic spheres:
 Atom  Sphere_radius  Integrated_density
    1        2.00000          0.47281931
    2        2.00000          0.51015956
    3        2.00000          5.56792943
    4        2.00000          5.45392186
    5        2.00000          5.58606678
    6        2.00000          5.57745393

---OUTPUT-----------------------------------------------------------------------

 Cartesian coordinates (xcart) [bohr]
 -5.79230816966784E-01  2.24584053512773E-01  3.94837902130629E-01
  3.83132995446259E+00  5.14427688823756E+00  5.24296916494881E+00
 -6.52524300314057E-01  3.10617909644726E+00  3.37543567786489E+00
 -1.16817750817321E+00  7.19170013663885E+00  6.09956168690685E+00
  3.91195703064438E+00  2.16942724723988E+00  8.18732977829024E+00
  4.45198502969720E+00  7.51062222685719E+00  2.04665543879214E+00
 Reduced coordinates (xred)
 -5.71305898093445E-02  3.43920809783803E-02  3.89435809819846E-02
  3.77891047301112E-01  7.87778048121364E-01  5.17123592135997E-01
 -6.43596594827061E-02  4.75670295140927E-01  3.32925364968944E-01
 -1.15219473980048E-01  1.10131387158993E+00  6.01610871770056E-01
  3.85843442584550E-01  3.32219124184323E-01  8.07531238836268E-01
  4.39107387104989E-01  1.15015257665836E+00  2.01865351306753E-01
 Cartesian forces (fcart) [Ha/bohr]; max,rms= 4.79017E-02 1.87136E-02 (free atoms)
  1.49041337247765E-02 -2.02730901639664E-02 -1.39913680197293E-02
 -7.74291984117493E-03 -3.56928855409434E-02  5.86893245714652E-03
  4.01629309070715E-03  1.85154856171494E-02  9.51537452202141E-03
  5.87584920069999E-03  6.73807484754271E-03  1.95354386331951E-02
 -3.54699865894372E-03 -1.71893220037500E-02 -2.02415557111868E-02
 -1.35063575160650E-02  4.79017372439678E-02 -6.86821881446981E-04
 Reduced forces (fred)
 -1.51108776968595E-01  1.32385497961454E-01  1.41854504838757E-01
  7.85032641931259E-02  2.33078449698686E-01 -5.95034385820366E-02
 -4.07200544554477E-02 -1.20908147874822E-01 -9.64736785761992E-02
 -5.95735654795988E-02 -4.40003663367994E-02 -1.98064261494098E-01
  3.59620115573184E-02  1.12248154311024E-01  2.05223381911448E-01
  1.36937121153197E-01 -3.12803587759542E-01  6.96349190212856E-03
 Scale of Primitive Cell (acell) [bohr]
  1.01387158595734E+01  6.53010946484896E+00  1.01387158595734E+01
 Real space primitive translations (rprimd) [bohr]
  1.01387158595734E+01  0.00000000000000E+00  0.00000000000000E+00
  0.00000000000000E+00  6.53010946484896E+00  0.00000000000000E+00
  0.00000000000000E+00  0.00000000000000E+00  1.01387158595734E+01
 Unitary Cell Volume (ucvol) [Bohr^3]=  6.71253194387451E+02
 Angles (23,13,12)= [degrees]
  9.00000000000000E+01  9.00000000000000E+01  9.00000000000000E+01
 Lengths [Bohr]
  1.01387158595734E+01  6.53010946484896E+00  1.01387158595734E+01
 Stress tensor in cartesian coordinates (strten) [Ha/bohr^3]
  4.76748662526678E-04  9.20658550128498E-05 -9.01932724549124E-05
  9.20658550128498E-05 -4.32493356834334E-04  1.12480743263108E-04
 -9.01932724549124E-05  1.12480743263108E-04 -4.86686179662568E-04
 Total energy (etotal) [Ha]= -6.87011341128844E+01

 Difference of energy with previous step (new-old):
           Absolute (Ha)=-6.31084E-01
           Relative     =-9.22831E-03

 fconv : WARNING -
  ntime=   10 was not enough Broyd/MD steps to converge gradients:
  max grad (force/stress) = 4.7902E-02 > tolmxf= 5.0000E-05 ha/bohr (free atoms)

 ----iterations are completed or convergence reached----

 Mean square residual over all n,k,spin=   1.4359E-06; max=  1.3901E-04
 reduced coordinates (array xred) for    6 atoms
      -0.057130589809      0.034392080978      0.038943580982
       0.377891047301      0.787778048121      0.517123592136
      -0.064359659483      0.475670295141      0.332925364969
      -0.115219473980      1.101313871590      0.601610871770
       0.385843442585      0.332219124184      0.807531238836
       0.439107387105      1.150152576658      0.201865351307
 rms dE/dt=  1.6594E-01; max dE/dt=  2.6050E-01; dE/dt below (all hartree)
    1      -0.129508292137     -0.001175474349      0.197126620890
    2       0.100103749025      0.099517477388     -0.004231322531
    3      -0.019119569624     -0.254469120185     -0.041201562525
    4      -0.037973080648     -0.177561338647     -0.142792145443
    5       0.057562496389     -0.021312818000      0.260495497962
    6       0.158537605985     -0.446364560070      0.062235607953

 cartesian coordinates (angstrom) at end:
    1     -0.30651574685179     0.11884476253172     0.20893921889502
    2      2.02745249048977     2.72223408393160     2.77445978743105
    3     -0.34530098777734     1.64371918363857     1.78620362978764
    4     -0.61817291291272     3.80568380332287     3.22774902709988
    5      2.07011850160042     1.14801145493349     4.33254831788141
    6      2.35588901069963     3.97445010478230     1.08304341204556

 cartesian forces (hartree/bohr) at end:
    1      0.01490413372478    -0.02027309016397    -0.01399136801973
    2     -0.00774291984117    -0.03569288554094     0.00586893245715
    3      0.00401629309071     0.01851548561715     0.00951537452202
    4      0.00587584920070     0.00673807484754     0.01953543863320
    5     -0.00354699865894    -0.01718932200375    -0.02024155571119
    6     -0.01350635751607     0.04790173724397    -0.00068682188145
 frms,max,avg= 1.8713587E-02 4.7901737E-02  -2.130E-03  2.045E-02 -5.452E-03 h/b

 cartesian forces (eV/Angstrom) at end:
    1      0.76640130622082    -1.04248412351315    -0.71946501045619
    2     -0.39815691336523    -1.83540181579923     0.30179261568229
    3      0.20652607710884     0.95210447143978     0.48930018996907
    4      0.30214828890638     0.34648571060428     1.00455255988399
    5     -0.18239398918294    -0.88391040230833    -1.04086255688958
    6     -0.69452476968787     2.46320615957665    -0.03531779818957
 frms,max,avg= 9.6229126E-01 2.4632062E+00  -1.096E-01  1.052E+00 -2.803E-01 e/A
 length scales= 10.138715859573  6.530109464849 10.138715859573 bohr
              =  5.365177357256  3.455585098396  5.365177357256 angstroms
 prteigrs : about to open file RutileGeom3_o_EIG
 Fermi (or HOMO) energy (hartree) =   0.02776   Average Vxc (hartree)=  -0.37480
 Eigenvalues (hartree) for nkpt=  16  k points:
 kpt#   1, nband= 17, wtk=  0.06250, kpt= -0.2500  0.5000  0.0000 (reduced coord)
  -0.94399   -0.91129   -0.89178   -0.88906   -0.19593   -0.17122   -0.15384   -0.13710
  -0.12137   -0.09575   -0.06225   -0.05068   -0.03770   -0.02247   -0.00310    0.01307
   0.14125
 prteigrs : prtvol=0 or 1, do not print more k-points.

 Components of total free energy (in Hartree) :

    Kinetic energy  =  3.17684392586967E+01
    Hartree energy  =  1.76540686947491E+01
    XC energy       = -1.82580100885408E+01
    Ewald energy    = -4.93336107862612E+01
    PspCore energy  =  6.65783512996229E+00
    Loc. psp. energy= -6.82385150876757E+01
    NL   psp  energy=  1.10486587661853E+01
    >>>>>>>>> Etotal= -6.87011341128844E+01

 Other information on the energy :
    Total energy(eV)= -1.86945293196304E+03 ; Band energy (Ha)=  -9.2197306140E+00
 rms coord change=  6.1032E-02   atom, delta coord (reduced):
     1       -0.057130589809      0.034392080978      0.038943580982
     2        0.055846996062      0.011472848787      0.017123592136
     3       -0.064359659483     -0.005630343374      0.022930894413
     4       -0.115219473980      0.030004111435     -0.088394657674
     5        0.063799391345      0.037214563364     -0.002463231719
     6        0.117063335865     -0.107453261191      0.011859821862

 Cartesian components of stress tensor (hartree/bohr^3)
  sigma(1 1)=  4.76748663E-04  sigma(3 2)=  1.12480743E-04
  sigma(2 2)= -4.32493357E-04  sigma(3 1)= -9.01932725E-05
  sigma(3 3)= -4.86686180E-04  sigma(2 1)=  9.20658550E-05

-Cartesian components of stress tensor (GPa)         [Pressure=  4.3389E+00 GPa]
- sigma(1 1)=  1.40264276E+01  sigma(3 2)=  3.30929716E+00
- sigma(2 2)= -1.27243917E+01  sigma(3 1)= -2.65357724E+00
- sigma(3 3)= -1.43187993E+01  sigma(2 1)=  2.70867051E+00

== END DATASET(S) ==============================================================

 -outvars: echo values of variables after computation  --------
            acell      1.0138715860E+01  6.5301094648E+00  1.0138715860E+01 Bohr
              amu      4.78800000E+01  1.59994000E+01
           diemac      1.20000000E+01
          dilatmx      1.20000000E+00
             ecut      8.00000000E+00 Hartree
           ecutsm      5.00000000E-01 Hartree
           etotal     -6.8701134113E+01
            fcart      1.4904133725E-02 -2.0273090164E-02 -1.3991368020E-02
                      -7.7429198412E-03 -3.5692885541E-02  5.8689324571E-03
                       4.0162930907E-03  1.8515485617E-02  9.5153745220E-03
                       5.8758492007E-03  6.7380748475E-03  1.9535438633E-02
                      -3.5469986589E-03 -1.7189322004E-02 -2.0241555711E-02
                      -1.3506357516E-02  4.7901737244E-02 -6.8682188145E-04
-          fftalg         112
           getwfk          -1
           ionmov           2
              kpt     -2.50000000E-01  5.00000000E-01  0.00000000E+00
                       5.00000000E-01 -2.50000000E-01  0.00000000E+00
                      -2.50000000E-01 -2.50000000E-01  2.50000000E-01
                      -2.50000000E-01  0.00000000E+00  0.00000000E+00
                      -2.50000000E-01  2.50000000E-01  2.50000000E-01
                       5.00000000E-01  5.00000000E-01  2.50000000E-01
                      -2.50000000E-01  5.00000000E-01  5.00000000E-01
                       0.00000000E+00 -2.50000000E-01  0.00000000E+00
                       2.50000000E-01 -2.50000000E-01  2.50000000E-01
                       5.00000000E-01 -2.50000000E-01  5.00000000E-01
                      -2.50000000E-01 -2.50000000E-01 -2.50000000E-01
                       5.00000000E-01  0.00000000E+00  2.50000000E-01
                      -2.50000000E-01  0.00000000E+00  5.00000000E-01
                       0.00000000E+00  5.00000000E-01  2.50000000E-01
                       0.00000000E+00 -2.50000000E-01  5.00000000E-01
                       0.00000000E+00  0.00000000E+00  2.50000000E-01
         kptrlatt        2   -2    2      0    4    0     -2   -2    2
          kptrlen      2.23644000E+01
P           mkmem          16
            natom           6
            nband          17
            ngfft          30      18      30
             nkpt          16
            nstep          10
             nsym           1
            ntime          10
           ntypat           2
              occ      2.000000  2.000000  2.000000  2.000000  2.000000  2.000000
                       2.000000  2.000000  2.000000  2.000000  2.000000  2.000000
                       2.000000  2.000000  2.000000  2.000000  0.000000
          optcell           1
           shiftk      5.00000000E-01  0.00000000E+00  5.00000000E-01
          spgroup           1
           strten      4.7674866253E-04 -4.3249335683E-04 -4.8668617966E-04
                       1.1248074326E-04 -9.0193272455E-05  9.2065855013E-05
           toldfe      1.00000000E-04 Hartree
            typat      1  1  2  2  2  2
              wtk        0.06250    0.06250    0.06250    0.06250    0.06250    0.06250
                         0.06250    0.06250    0.06250    0.06250    0.06250    0.06250
                         0.06250    0.06250    0.06250    0.06250
           xangst     -3.0651574685E-01  1.1884476253E-01  2.0893921890E-01
                       2.0274524905E+00  2.7222340839E+00  2.7744597874E+00
                      -3.4530098778E-01  1.6437191836E+00  1.7862036298E+00
                      -6.1817291291E-01  3.8056838033E+00  3.2277490271E+00
                       2.0701185016E+00  1.1480114549E+00  4.3325483179E+00
                       2.3558890107E+00  3.9744501048E+00  1.0830434120E+00
            xcart     -5.7923081697E-01  2.2458405351E-01  3.9483790213E-01
                       3.8313299545E+00  5.1442768882E+00  5.2429691649E+00
                      -6.5252430031E-01  3.1061790964E+00  3.3754356779E+00
                      -1.1681775082E+00  7.1917001366E+00  6.0995616869E+00
                       3.9119570306E+00  2.1694272472E+00  8.1873297783E+00
                       4.4519850297E+00  7.5106222269E+00  2.0466554388E+00
             xred     -5.7130589809E-02  3.4392080978E-02  3.8943580982E-02
                       3.7789104730E-01  7.8777804812E-01  5.1712359214E-01
                      -6.4359659483E-02  4.7567029514E-01  3.3292536497E-01
                      -1.1521947398E-01  1.1013138716E+00  6.0161087177E-01
                       3.8584344258E-01  3.3221912418E-01  8.0753123884E-01
                       4.3910738710E-01  1.1501525767E+00  2.0186535131E-01
            znucl       22.00000    8.00000

-
-  as well as % of the time and number of calls for node 0-
-<BEGIN_TIMER mpi_nprocs = 1, omp_nthreads = 1, mpi_rank = 0>
- cpu_time =           87.1, wall_time =           92.4
-
-                                                                  (-1=no count)
- fourwf%(pot)                  42.484  48.8     42.551  46.0         141230      -1.00        1.00       1.00
- projbd                        11.766  13.5     11.754  12.7         225884      -1.00        1.00       1.00
- nonlop(apply)                 11.484  13.2     12.184  13.2         141230      -1.00        0.94       0.94
- vtowfk(ssdiag)                 4.266   4.9      6.215   6.7             -1      -1.00        0.69       0.69
- fourwf%(den)                   3.375   3.9      3.466   3.7          21504      -1.00        0.97       0.97
- getghc-other                   2.141   2.5      2.322   2.5             -1      -1.00        0.92       0.92
- vtowfk(contrib)                0.906   1.0      2.341   2.5           1344      -1.00        0.39       0.39
- pspini                         0.688   0.8      0.719   0.8              1      -1.00        0.96       0.96
- others (105)                   1.422   1.6      2.165   2.3             -1      -1.00        0.66       0.66
-<END_TIMER>
-
- subtotal                      78.531  90.2     83.717  90.6                                  0.94       0.94

- as well as % of the total time and number of calls

-<BEGIN_TIMER mpi_nprocs = 1, omp_nthreads = 1, mpi_rank = world>
- cpu_time =          87.1, wall_time =          92.4
-
-                                                                  (-1=no count)
- fourwf%(pot)                  42.484  48.8     42.551  46.0         141230      -1.00        1.00       1.00
- projbd                        11.766  13.5     11.754  12.7         225884      -1.00        1.00       1.00
- nonlop(apply)                 11.484  13.2     12.184  13.2         141230      -1.00        0.94       0.94
- vtowfk(ssdiag)                 4.266   4.9      6.215   6.7             -1      -1.00        0.69       0.69
- fourwf%(den)                   3.375   3.9      3.466   3.7          21504      -1.00        0.97       0.97
- getghc-other                   2.141   2.5      2.322   2.5             -1      -1.00        0.92       0.92
- vtowfk(contrib)                0.906   1.0      2.341   2.5           1344      -1.00        0.39       0.39
- pspini                         0.688   0.8      0.719   0.8              1      -1.00        0.96       0.96
- others (105)                   1.422   1.6      2.165   2.3             -1      -1.00        0.66       0.66
-<END_TIMER>

- subtotal                      78.531  90.2     83.717  90.6                                  0.94       0.94

 Suggested references for the acknowledgment of ABINIT usage.

 Calculation completed.
.Delivered   3 WARNINGs and   7 COMMENTs to log file.