.Version 8.6.3 of ABINIT
.(sequential version, prepared for a x86_64_linux_gnu5.4 computer)

 ABINIT is a project of the Universite Catholique de Louvain,
 Corning Inc. and other collaborators, see ~abinit/doc/developers/contributors.txt .
 Please read ~abinit/doc/users/acknowledgments.html for suggested
 acknowledgments of the ABINIT effort.

.Starting date : Tue 24 Apr 2018.
- ( at 10h29 )

- input  file    -> manualGeomOpt.in
- output file    -> mamualGeomOpt.out
- root for input  files -> manualGeomOpt_i
- root for output files -> manualGeomOpt_o

 DATASET    1 : space group P1 (#  1); Bravais aP (primitive triclinic)
     intxc =       0    ionmov =       0      iscf =       7    lmnmax =       6
     lnmax =       6     mgfft =     320  mpssoang =       3    mqgrid =   15692
     natom =      20  nloc_mem =       1    nspden =       1   nspinor =       1
    nsppol =       1      nsym =       1    n1xccc =    2501    ntypat =       3
    occopt =       1   xclevel =       2
-    mband =         123        mffmem =           1         mkmem =           2
       mpw =       75364          nfft =     1310720          nkpt =           2
  Rough estimation (10% accuracy) of disk space for files :

[...]

 DATASET   15 : space group P1 (#  1); Bravais aP (primitive triclinic)
     intxc =       0    ionmov =       0      iscf =       7    lmnmax =       6
     lnmax =       6     mgfft =     360  mpssoang =       3    mqgrid =   16614
     natom =      20  nloc_mem =       1    nspden =       1   nspinor =       1
    nsppol =       1      nsym =       1    n1xccc =    2501    ntypat =       3
    occopt =       1   xclevel =       2
-    mband =         123        mffmem =           1         mkmem =           2
       mpw =       79800          nfft =     1474560          nkpt =           2
  Rough estimation (10% accuracy) of disk space for files :

------------- Echo of variables that govern the present computation ------------
-
- outvars: echo of selected default values
-   iomode0 =  0 , fftalg0 =112 , wfoptalg0 =  0
-
- outvars: echo of global parameters not present in the input file
-  max_nthreads =    0
-
 -outvars: echo values of preprocessed input variables --------
            acell1     8.6808000000E+00  8.6808000000E+00  4.5000000000E+01 Bohr
            acell2     8.6808000000E+00  8.6808000000E+00  4.5189000000E+01 Bohr
            acell3     8.6808000000E+00  8.6808000000E+00  4.5378000000E+01 Bohr
            acell4     8.6808000000E+00  8.6808000000E+00  4.5567000000E+01 Bohr
            acell5     8.6808000000E+00  8.6808000000E+00  4.5756000000E+01 Bohr
            acell6     8.6808000000E+00  8.6808000000E+00  4.5945000000E+01 Bohr
            acell7     8.6808000000E+00  8.6808000000E+00  4.6134000000E+01 Bohr
            acell8     8.6808000000E+00  8.6808000000E+00  4.6323000000E+01 Bohr
            acell9     8.6808000000E+00  8.6808000000E+00  4.6512000000E+01 Bohr
            acell10    8.6808000000E+00  8.6808000000E+00  4.6701000000E+01 Bohr
            acell11    8.6808000000E+00  8.6808000000E+00  4.6890000000E+01 Bohr
            acell12    8.6808000000E+00  8.6808000000E+00  4.7079000000E+01 Bohr
            acell13    8.6808000000E+00  8.6808000000E+00  4.7268000000E+01 Bohr
            acell14    8.6808000000E+00  8.6808000000E+00  4.7457000000E+01 Bohr
            acell15    8.6808000000E+00  8.6808000000E+00  4.7646000000E+01 Bohr
              amu      4.78800000E+01  1.59994000E+01  1.06420000E+02
           diemac      1.20000000E+01
             ecut      6.00000000E+01 Hartree
-          fftalg         112
              ixc          11
           jdtset        1    2    3    4    5    6    7    8    9   10
                        11   12   13   14   15
              kpt      1.25000000E-01  5.00000000E-01  5.00000000E-01
                       3.75000000E-01  5.00000000E-01  5.00000000E-01
           kptopt           2
         kptrlatt        4    0    0      0    1    0      0    0    1
          kptrlen      8.68080000E+00
P           mkmem           2
            natom          20
            nband         123
           ndtset          15
            ngfft1         64      64     320
            ngfft2         64      64     320
            ngfft3         64      64     320
            ngfft4         64      64     320
            ngfft5         64      64     320
            ngfft6         64      64     324
            ngfft7         64      64     324
            ngfft8         64      64     324
            ngfft9         64      64     360
            ngfft10        64      64     360
            ngfft11        64      64     360
            ngfft12        64      64     360
            ngfft13        64      64     360
            ngfft14        64      64     360
            ngfft15        64      64     360
             nkpt           2
            nstep          40
             nsym           1
           ntypat           3
              occ      2.000000  2.000000  2.000000  2.000000  2.000000  2.000000
                       2.000000  2.000000  2.000000  2.000000  2.000000  2.000000
                       2.000000  2.000000  2.000000  2.000000  2.000000  2.000000
                       2.000000  2.000000  2.000000  2.000000  2.000000  2.000000
                       2.000000  2.000000  2.000000  2.000000  2.000000  2.000000
                       2.000000  2.000000  2.000000  2.000000  2.000000  2.000000
                       2.000000  2.000000  2.000000  2.000000  2.000000  2.000000
                       2.000000  2.000000  2.000000  2.000000  2.000000  2.000000
                       2.000000  2.000000  2.000000  2.000000  2.000000  2.000000
                       2.000000  2.000000  2.000000  2.000000  2.000000  2.000000
                       2.000000  2.000000  2.000000  2.000000  2.000000  2.000000
                       2.000000  2.000000  2.000000  2.000000  2.000000  2.000000
                       2.000000  2.000000  2.000000  2.000000  2.000000  2.000000
                       2.000000  2.000000  2.000000  2.000000  2.000000  2.000000
                       2.000000  2.000000  2.000000  2.000000  2.000000  2.000000
                       2.000000  2.000000  2.000000  2.000000  2.000000  2.000000
                       2.000000  2.000000  2.000000  2.000000  2.000000  2.000000
                       2.000000  2.000000  2.000000  2.000000  2.000000  2.000000
                       2.000000  2.000000  2.000000  2.000000  2.000000  2.000000
                       2.000000  2.000000  2.000000  2.000000  2.000000  2.000000
                       0.000000  0.000000  0.000000
           shiftk      5.00000000E-01  5.00000000E-01  5.00000000E-01
          spgroup           1
           toldfe      1.00000000E-02 Hartree
            typat      1  1  1  1  2  2  2  2  2  2  2  2  3  3  3  3  3  3  3  3
              wtk        0.50000    0.50000
           xangst1     0.0000000000E+00  0.0000000000E+00  0.0000000000E+00
                       0.0000000000E+00  0.0000000000E+00  4.5936815123E+00
                       2.2968407562E+00  1.4793678043E+00  2.2968407562E+00
                       2.2968407562E+00  1.4793678043E+00  6.8905222685E+00
                       3.9876836484E+01  0.0000000000E+00  1.4240158683E+00
                       3.9876836484E+01  0.0000000000E+00  6.0176973806E+00
                       3.1696656440E+00  0.0000000000E+00  3.1696656440E+00
                       3.1696656440E+00  0.0000000000E+00  7.7633471563E+00
                       8.7282488785E-01  1.4793678043E+00  3.7208566245E+00
                       8.7282488785E-01  1.4793678043E+00  8.3145381368E+00
                       3.7208566245E+00  1.4793678043E+00  8.7282488785E-01
                       3.7208566245E+00  1.4793678043E+00  5.4665064002E+00
                       8.7282488785E-01  0.0000000000E+00  1.1833249068E+01
                       8.7282488785E-01  0.0000000000E+00  1.5723971576E+01
                       1.9453612542E+00  1.3755961537E+00  1.3208845221E+01
                       1.9453612542E+00  1.3755961537E+00  1.7099567730E+01
                       1.9453612542E+00 -1.3755961537E+00  1.3208845221E+01
                       1.9453612542E+00 -1.3755961537E+00  1.7099567730E+01
                       0.0000000000E+00  0.0000000000E+00  1.4584388457E+01
                       0.0000000000E+00  0.0000000000E+00  1.8475110966E+01
           xangst2     0.0000000000E+00  0.0000000000E+00  0.0000000000E+00
                       0.0000000000E+00  0.0000000000E+00  4.5936815123E+00
                       2.2968407562E+00  1.4793678043E+00  2.2968407562E+00
                       2.2968407562E+00  1.4793678043E+00  6.8905222685E+00
                       3.9876836484E+01  0.0000000000E+00  1.4240158683E+00
                       3.9876836484E+01  0.0000000000E+00  6.0176973806E+00
                       3.1696656440E+00  0.0000000000E+00  3.1696656440E+00
                       3.1696656440E+00  0.0000000000E+00  7.7633471563E+00
                       8.7282488785E-01  1.4793678043E+00  3.7208566245E+00
                       8.7282488785E-01  1.4793678043E+00  8.3145381368E+00
                       3.7208566245E+00  1.4793678043E+00  8.7282488785E-01
                       3.7208566245E+00  1.4793678043E+00  5.4665064002E+00
                       8.7282488785E-01  0.0000000000E+00  1.1933263560E+01
                       8.7282488785E-01  0.0000000000E+00  1.5823986068E+01
                       1.9453612542E+00  1.3755961537E+00  1.3308859714E+01
                       1.9453612542E+00  1.3755961537E+00  1.7199582222E+01
                       1.9453612542E+00 -1.3755961537E+00  1.3308859714E+01
                       1.9453612542E+00 -1.3755961537E+00  1.7199582222E+01
                       0.0000000000E+00  0.0000000000E+00  1.4684402950E+01
                       0.0000000000E+00  0.0000000000E+00  1.8575125458E+01
           xangst3     0.0000000000E+00  0.0000000000E+00  0.0000000000E+00
                       0.0000000000E+00  0.0000000000E+00  4.5936815123E+00
                       2.2968407562E+00  1.4793678043E+00  2.2968407562E+00
                       2.2968407562E+00  1.4793678043E+00  6.8905222685E+00
                       3.9876836484E+01  0.0000000000E+00  1.4240158683E+00
                       3.9876836484E+01  0.0000000000E+00  6.0176973806E+00
                       3.1696656440E+00  0.0000000000E+00  3.1696656440E+00
                       3.1696656440E+00  0.0000000000E+00  7.7633471563E+00
                       8.7282488785E-01  1.4793678043E+00  3.7208566245E+00
                       8.7282488785E-01  1.4793678043E+00  8.3145381368E+00
                       3.7208566245E+00  1.4793678043E+00  8.7282488785E-01
                       3.7208566245E+00  1.4793678043E+00  5.4665064002E+00
                       8.7282488785E-01  0.0000000000E+00  1.2033278052E+01
                       8.7282488785E-01  0.0000000000E+00  1.5924000561E+01
                       1.9453612542E+00  1.3755961537E+00  1.3408874206E+01
                       1.9453612542E+00  1.3755961537E+00  1.7299596715E+01
[...]
                       8.0999447056E-01  3.2204405124E-01  3.5899444989E-02
                       8.0999447056E-01  3.2204405124E-01  2.2483839373E-01
                       1.9000552944E-01  0.0000000000E+00  5.0727173795E-01
                       1.9000552944E-01  0.0000000000E+00  6.6729785613E-01
                       4.2348631463E-01  2.9945396738E-01  5.6385025574E-01
                       4.2348631463E-01  2.9945396738E-01  7.2387637393E-01
                       4.2348631463E-01 -2.9945396738E-01  5.6385025574E-01
                       4.2348631463E-01 -2.9945396738E-01  7.2387637393E-01
                       0.0000000000E+00  0.0000000000E+00  6.2042659702E-01
                       0.0000000000E+00  0.0000000000E+00  7.8045271520E-01
             xred7     0.0000000000E+00  0.0000000000E+00  0.0000000000E+00
                       0.0000000000E+00  0.0000000000E+00  1.8816491091E-01
                       5.0000000000E-01  3.2204405124E-01  9.4082455456E-02
                       5.0000000000E-01  3.2204405124E-01  2.8224736637E-01
                       8.6808013086E+00  0.0000000000E+00  5.8330081935E-02
                       8.6808013086E+00  0.0000000000E+00  2.4649499285E-01
                       6.9000552944E-01  0.0000000000E+00  1.2983482898E-01
                       6.9000552944E-01  0.0000000000E+00  3.1799973989E-01
                       1.9000552944E-01  3.2204405124E-01  1.5241253739E-01
                       1.9000552944E-01  3.2204405124E-01  3.4057744830E-01
                       8.0999447056E-01  3.2204405124E-01  3.5752373521E-02
                       8.0999447056E-01  3.2204405124E-01  2.2391728443E-01
                       1.9000552944E-01  0.0000000000E+00  5.0929032817E-01
                       1.9000552944E-01  0.0000000000E+00  6.6866085750E-01
                       4.2348631463E-01  2.9945396738E-01  5.6563705727E-01
                       4.2348631463E-01  2.9945396738E-01  7.2500758660E-01
                       4.2348631463E-01 -2.9945396738E-01  5.6563705727E-01
                       4.2348631463E-01 -2.9945396738E-01  7.2500758660E-01
                       0.0000000000E+00  0.0000000000E+00  6.2198161876E-01
                       0.0000000000E+00  0.0000000000E+00  7.8135214809E-01
             xred8     0.0000000000E+00  0.0000000000E+00  0.0000000000E+00
                       0.0000000000E+00  0.0000000000E+00  1.8739718930E-01
                       5.0000000000E-01  3.2204405124E-01  9.3698594651E-02
                       5.0000000000E-01  3.2204405124E-01  2.8109578395E-01
                       8.6808013086E+00  0.0000000000E+00  5.8092092481E-02
                       8.6808013086E+00  0.0000000000E+00  2.4548928178E-01
                       6.9000552944E-01  0.0000000000E+00  1.2930509682E-01
                       6.9000552944E-01  0.0000000000E+00  3.1670228612E-01
                       1.9000552944E-01  3.2204405124E-01  1.5179068713E-01
                       1.9000552944E-01  3.2204405124E-01  3.3918787643E-01
                       8.0999447056E-01  3.2204405124E-01  3.5606502170E-02
                       8.0999447056E-01  3.2204405124E-01  2.2300369147E-01
                       1.9000552944E-01  0.0000000000E+00  5.1129244652E-01
                       1.9000552944E-01  0.0000000000E+00  6.7001273665E-01
                       4.2348631463E-01  2.9945396738E-01  5.6740927833E-01
                       4.2348631463E-01  2.9945396738E-01  7.2612956846E-01
                       4.2348631463E-01 -2.9945396738E-01  5.6740927833E-01
                       4.2348631463E-01 -2.9945396738E-01  7.2612956846E-01
                       0.0000000000E+00  0.0000000000E+00  6.2352395138E-01
                       0.0000000000E+00  0.0000000000E+00  7.8224424152E-01
             xred9     0.0000000000E+00  0.0000000000E+00  0.0000000000E+00
                       0.0000000000E+00  0.0000000000E+00  1.8663570691E-01
                       5.0000000000E-01  3.2204405124E-01  9.3317853457E-02
                       5.0000000000E-01  3.2204405124E-01  2.7995356037E-01
                       8.6808013086E+00  0.0000000000E+00  5.7856037152E-02
                       8.6808013086E+00  0.0000000000E+00  2.4449174407E-01
                       6.9000552944E-01  0.0000000000E+00  1.2877966976E-01
                       6.9000552944E-01  0.0000000000E+00  3.1541537668E-01
                       1.9000552944E-01  3.2204405124E-01  1.5117389061E-01
                       1.9000552944E-01  3.2204405124E-01  3.3780959752E-01
                       8.0999447056E-01  3.2204405124E-01  3.5461816305E-02
                       8.0999447056E-01  3.2204405124E-01  2.2209752322E-01
                       1.9000552944E-01  0.0000000000E+00  5.1327829377E-01
                       1.9000552944E-01  0.0000000000E+00  6.7135362917E-01
                       4.2348631463E-01  2.9945396738E-01  5.6916709666E-01
                       4.2348631463E-01  2.9945396738E-01  7.2724243206E-01
                       4.2348631463E-01 -2.9945396738E-01  5.6916709666E-01
                       4.2348631463E-01 -2.9945396738E-01  7.2724243206E-01
                       0.0000000000E+00  0.0000000000E+00  6.2505374957E-01
                       0.0000000000E+00  0.0000000000E+00  7.8312908497E-01
             xred10    0.0000000000E+00  0.0000000000E+00  0.0000000000E+00
                       0.0000000000E+00  0.0000000000E+00  1.8588038800E-01
                       5.0000000000E-01  3.2204405124E-01  9.2940194000E-02
                       5.0000000000E-01  3.2204405124E-01  2.7882058200E-01
                       8.6808013086E+00  0.0000000000E+00  5.7621892465E-02
                       8.6808013086E+00  0.0000000000E+00  2.4350228047E-01
                       6.9000552944E-01  0.0000000000E+00  1.2825849554E-01
                       6.9000552944E-01  0.0000000000E+00  3.1413888354E-01
                       1.9000552944E-01  3.2204405124E-01  1.5056208646E-01
                       1.9000552944E-01  3.2204405124E-01  3.3644247447E-01
                       8.0999447056E-01  3.2204405124E-01  3.5318301535E-02
                       8.0999447056E-01  3.2204405124E-01  2.2119868954E-01
                       1.9000552944E-01  0.0000000000E+00  5.1524806749E-01
                       1.9000552944E-01  0.0000000000E+00  6.7268366844E-01
                       4.2348631463E-01  2.9945396738E-01  5.7091068714E-01
                       4.2348631463E-01  2.9945396738E-01  7.2834628809E-01
                       4.2348631463E-01 -2.9945396738E-01  5.7091068714E-01
                       4.2348631463E-01 -2.9945396738E-01  7.2834628809E-01
                       0.0000000000E+00  0.0000000000E+00  6.2657116550E-01
                       0.0000000000E+00  0.0000000000E+00  7.8400676645E-01
             xred11    0.0000000000E+00  0.0000000000E+00  0.0000000000E+00
                       0.0000000000E+00  0.0000000000E+00  1.8513115803E-01
                       5.0000000000E-01  3.2204405124E-01  9.2565579015E-02
                       5.0000000000E-01  3.2204405124E-01  2.7769673704E-01
                       8.6808013086E+00  0.0000000000E+00  5.7389635317E-02
                       8.6808013086E+00  0.0000000000E+00  2.4252079335E-01
                       6.9000552944E-01  0.0000000000E+00  1.2774152271E-01
                       6.9000552944E-01  0.0000000000E+00  3.1287268074E-01
                       1.9000552944E-01  3.2204405124E-01  1.4995521433E-01
                       1.9000552944E-01  3.2204405124E-01  3.3508637236E-01
                       8.0999447056E-01  3.2204405124E-01  3.5175943698E-02
                       8.0999447056E-01  3.2204405124E-01  2.2030710173E-01
                       1.9000552944E-01  0.0000000000E+00  5.1720196204E-01
                       1.9000552944E-01  0.0000000000E+00  6.7400298571E-01
                       4.2348631463E-01  2.9945396738E-01  5.7264022180E-01
                       4.2348631463E-01  2.9945396738E-01  7.2944124547E-01
                       4.2348631463E-01 -2.9945396738E-01  5.7264022180E-01
                       4.2348631463E-01 -2.9945396738E-01  7.2944124547E-01
                       0.0000000000E+00  0.0000000000E+00  6.2807634890E-01
                       0.0000000000E+00  0.0000000000E+00  7.8487737257E-01
             xred12    0.0000000000E+00  0.0000000000E+00  0.0000000000E+00
                       0.0000000000E+00  0.0000000000E+00  1.8438794367E-01
                       5.0000000000E-01  3.2204405124E-01  9.2193971835E-02
                       5.0000000000E-01  3.2204405124E-01  2.7658191550E-01
                       8.6808013086E+00  0.0000000000E+00  5.7159242975E-02
                       8.6808013086E+00  0.0000000000E+00  2.4154718664E-01
                       6.9000552944E-01  0.0000000000E+00  1.2722870069E-01
                       6.9000552944E-01  0.0000000000E+00  3.1161664436E-01
                       1.9000552944E-01  3.2204405124E-01  1.4935321481E-01
                       1.9000552944E-01  3.2204405124E-01  3.3374115848E-01
                       8.0999447056E-01  3.2204405124E-01  3.5034728860E-02
                       8.0999447056E-01  3.2204405124E-01  2.1942267253E-01
                       1.9000552944E-01  0.0000000000E+00  5.1914016865E-01
                       1.9000552944E-01  0.0000000000E+00  6.7531171010E-01
                       4.2348631463E-01  2.9945396738E-01  5.7435586992E-01
                       4.2348631463E-01  2.9945396738E-01  7.3052741137E-01
                       4.2348631463E-01 -2.9945396738E-01  5.7435586992E-01
                       4.2348631463E-01 -2.9945396738E-01  7.3052741137E-01
                       0.0000000000E+00  0.0000000000E+00  6.2956944710E-01
                       0.0000000000E+00  0.0000000000E+00  7.8574098855E-01
             xred13    0.0000000000E+00  0.0000000000E+00  0.0000000000E+00
                       0.0000000000E+00  0.0000000000E+00  1.8365067276E-01
                       5.0000000000E-01  3.2204405124E-01  9.1825336380E-02
                       5.0000000000E-01  3.2204405124E-01  2.7547600914E-01
                       8.6808013086E+00  0.0000000000E+00  5.6930693069E-02
                       8.6808013086E+00  0.0000000000E+00  2.4058136583E-01
                       6.9000552944E-01  0.0000000000E+00  1.2671997969E-01
                       6.9000552944E-01  0.0000000000E+00  3.1037065245E-01
                       1.9000552944E-01  3.2204405124E-01  1.4875602945E-01
                       1.9000552944E-01  3.2204405124E-01  3.3240670221E-01
                       8.0999447056E-01  3.2204405124E-01  3.4894643310E-02
                       8.0999447056E-01  3.2204405124E-01  2.1854531607E-01
                       1.9000552944E-01  0.0000000000E+00  5.2106287552E-01
                       1.9000552944E-01  0.0000000000E+00  6.7660996869E-01
                       4.2348631463E-01  2.9945396738E-01  5.7605779809E-01
                       4.2348631463E-01  2.9945396738E-01  7.3160489126E-01
                       4.2348631463E-01 -2.9945396738E-01  5.7605779809E-01
                       4.2348631463E-01 -2.9945396738E-01  7.3160489126E-01
                       0.0000000000E+00  0.0000000000E+00  6.3105060506E-01
                       0.0000000000E+00  0.0000000000E+00  7.8659769823E-01
             xred14    0.0000000000E+00  0.0000000000E+00  0.0000000000E+00
                       0.0000000000E+00  0.0000000000E+00  1.8291927429E-01
                       5.0000000000E-01  3.2204405124E-01  9.1459637145E-02
                       5.0000000000E-01  3.2204405124E-01  2.7437891144E-01
                       8.6808013086E+00  0.0000000000E+00  5.6703963588E-02
                       8.6808013086E+00  0.0000000000E+00  2.3962323788E-01
                       6.9000552944E-01  0.0000000000E+00  1.2621531070E-01
                       6.9000552944E-01  0.0000000000E+00  3.0913458499E-01
                       1.9000552944E-01  3.2204405124E-01  1.4816360073E-01
                       1.9000552944E-01  3.2204405124E-01  3.3108287502E-01
                       8.0999447056E-01  3.2204405124E-01  3.4755673557E-02
                       8.0999447056E-01  3.2204405124E-01  2.1767494785E-01
                       1.9000552944E-01  0.0000000000E+00  5.2297026782E-01
                       1.9000552944E-01  0.0000000000E+00  6.7789788651E-01
                       4.2348631463E-01  2.9945396738E-01  5.7774617022E-01
                       4.2348631463E-01  2.9945396738E-01  7.3267378890E-01
                       4.2348631463E-01 -2.9945396738E-01  5.7774617022E-01
                       4.2348631463E-01 -2.9945396738E-01  7.3267378890E-01
                       0.0000000000E+00  0.0000000000E+00  6.3251996544E-01
                       0.0000000000E+00  0.0000000000E+00  7.8744758413E-01
             xred15    0.0000000000E+00  0.0000000000E+00  0.0000000000E+00
                       0.0000000000E+00  0.0000000000E+00  1.8219367838E-01
                       5.0000000000E-01  3.2204405124E-01  9.1096839189E-02
                       5.0000000000E-01  3.2204405124E-01  2.7329051757E-01
                       8.6808013086E+00  0.0000000000E+00  5.6479032867E-02
                       8.6808013086E+00  0.0000000000E+00  2.3867271125E-01
                       6.9000552944E-01  0.0000000000E+00  1.2571464551E-01
                       6.9000552944E-01  0.0000000000E+00  3.0790832389E-01
                       1.9000552944E-01  3.2204405124E-01  1.4757587206E-01
                       1.9000552944E-01  3.2204405124E-01  3.2976955043E-01
                       8.0999447056E-01  3.2204405124E-01  3.4617806322E-02
                       8.0999447056E-01  3.2204405124E-01  2.1681148470E-01
                       1.9000552944E-01  0.0000000000E+00  5.2486252781E-01
                       1.9000552944E-01  0.0000000000E+00  6.7917558662E-01
                       4.2348631463E-01  2.9945396738E-01  5.7942114763E-01
                       4.2348631463E-01  2.9945396738E-01  7.3373420644E-01
                       4.2348631463E-01 -2.9945396738E-01  5.7942114763E-01
                       4.2348631463E-01 -2.9945396738E-01  7.3373420644E-01
                       0.0000000000E+00  0.0000000000E+00  6.3397766864E-01
                       0.0000000000E+00  0.0000000000E+00  7.8829072745E-01
            znucl       22.00000    8.00000   46.00000

-
-  as well as % of the time and number of calls for node 0-
-<BEGIN_TIMER mpi_nprocs = 1, omp_nthreads = 1, mpi_rank = 0>
- cpu_time =       136048.1, wall_time =       148640.1
-
-                                                                  (-1=no count)
- projbd                     51958.906  38.2  64141.481  43.2        1199094      -1.00        0.81       0.81
- nonlop(apply)              35815.422  26.3  35889.642  24.1         751329      -1.00        1.00       1.00
- fourwf%(pot)               25985.234  19.1  26250.842  17.7         751329      -1.00        0.99       0.99
- vtowfk(ssdiag)              8565.859   6.3   8590.572   5.8             -1      -1.00        1.00       1.00
- fourwf%(den)                2832.688   2.1   2840.219   1.9         140880      -1.00        1.00       1.00
- others (108)                2003.406   1.5   2001.204   1.3             -1      -1.00        1.00       1.00
-<END_TIMER>
-
- subtotal                  127161.516  93.5 139713.960  94.0                                  0.91       0.91

- as well as % of the total time and number of calls

-<BEGIN_TIMER mpi_nprocs = 1, omp_nthreads = 1, mpi_rank = world>
- cpu_time =      136048.1, wall_time =      148640.1
-
-                                                                  (-1=no count)
- projbd                     51958.906  38.2  64141.481  43.2        1199094      -1.00        0.81       0.81
- nonlop(apply)              35815.422  26.3  35889.642  24.1         751329      -1.00        1.00       1.00
- fourwf%(pot)               25985.234  19.1  26250.842  17.7         751329      -1.00        0.99       0.99
- vtowfk(ssdiag)              8565.859   6.3   8590.572   5.8             -1      -1.00        1.00       1.00
- fourwf%(den)                2832.688   2.1   2840.219   1.9         140880      -1.00        1.00       1.00
- others (108)                2003.406   1.5   2001.204   1.3             -1      -1.00        1.00       1.00
-<END_TIMER>

- subtotal                  127161.516  93.5 139713.960  94.0                                  0.91       0.91

 Suggested references for the acknowledgment of ABINIT usage.

 Calculation completed.
.Delivered  27 WARNINGs and  30 COMMENTs to log file.