.Version 8.6.3 of ABINIT
.(sequential version, prepared for a x86_64_linux_gnu5.4 computer)

 ABINIT is a project of the Universite Catholique de Louvain,
 Corning Inc. and other collaborators, see ~abinit/doc/developers/contributors.txt .
 Please read ~abinit/doc/users/acknowledgments.html for suggested
 acknowledgments of the ABINIT effort.

.Starting date : Sun 22 Apr 2018.
- ( at 11h28 )

- input  file    -> totalGeom1Layer.in
- output file    -> totalGeom1Layer.out
- root for input  files -> totalGeom1Layer_i
- root for output files -> totalGeom1Layer_o

 Symmetries : space group P1 (#  1); Bravais aP (primitive triclinic)
     intxc =       0    ionmov =       5      iscf =       7    lmnmax =       6
     lnmax =       6     mgfft =     320  mpssoang =       3    mqgrid =   15343
     natom =      10  nloc_mem =       1    nspden =       1   nspinor =       1
    nsppol =       1      nsym =       1    n1xccc =    2501    ntypat =       3
    occopt =       1   xclevel =       2
-    mband =          62        mffmem =           1         mkmem =           2
       mpw =       89056          nfft =     1658880          nkpt =           2
  Rough estimation (10% accuracy) of disk space for files :

------------- Echo of variables that govern the present computation ------------
-
- outvars: echo of selected default values
-   iomode0 =  0 , fftalg0 =112 , wfoptalg0 =  0
-
- outvars: echo of global parameters not present in the input file
-  max_nthreads =    0
-
 -outvars: echo values of preprocessed input variables --------
            acell      8.6808000000E+00  8.6808000000E+00  4.0000000000E+01 Bohr
              amu      4.78800000E+01  1.59994000E+01  1.06420000E+02
           diemac      1.20000000E+01
          dilatmx      1.10000000E+00
             ecut      6.00000000E+01 Hartree
           ecutsm      5.00000000E-01 Hartree
-          fftalg         112
           ionmov           5
              ixc          11
              kpt      1.25000000E-01  5.00000000E-01  5.00000000E-01
                       3.75000000E-01  5.00000000E-01  5.00000000E-01
           kptopt           2
         kptrlatt        4    0    0      0    1    0      0    0    1
          kptrlen      8.68080000E+00
P           mkmem           2
            natom          10
            nband          62
            ngfft          72      72     320
             nkpt           2
            nstep          10
             nsym           1
            ntime          10
           ntypat           3
              occ      2.000000  2.000000  2.000000  2.000000  2.000000  2.000000
                       2.000000  2.000000  2.000000  2.000000  2.000000  2.000000
                       2.000000  2.000000  2.000000  2.000000  2.000000  2.000000
                       2.000000  2.000000  2.000000  2.000000  2.000000  2.000000
                       2.000000  2.000000  2.000000  2.000000  2.000000  2.000000
                       2.000000  2.000000  2.000000  2.000000  2.000000  2.000000
                       2.000000  2.000000  2.000000  2.000000  2.000000  2.000000
                       2.000000  2.000000  2.000000  2.000000  2.000000  2.000000
                       2.000000  2.000000  2.000000  2.000000  2.000000  2.000000
                       2.000000  2.000000  2.000000  2.000000  2.000000  2.000000
                       0.000000  0.000000
           shiftk      5.00000000E-01  5.00000000E-01  5.00000000E-01
          spgroup           1
           toldfe      1.00000000E-02 Hartree
            typat      1  1  2  2  2  2  3  3  3  3
              wtk        0.50000    0.50000
           xangst      0.0000000000E+00  0.0000000000E+00  0.0000000000E+00
                       2.2968407562E+00  1.4793678043E+00  2.2968407562E+00
                       3.9876836484E+01  0.0000000000E+00  1.4240158683E+00
                       3.1696656440E+00  0.0000000000E+00  3.1696656440E+00
                       8.7282488785E-01  1.4793678043E+00  3.7208566245E+00
                       3.7208566245E+00  1.4793678043E+00  8.7282488785E-01
                       8.7282488785E-01  0.0000000000E+00  7.5041561596E+00
                       1.9453612542E+00  1.3755961537E+00  8.8797523133E+00
                       1.9453612542E+00 -1.3755961537E+00  8.8797523133E+00
                       0.0000000000E+00  0.0000000000E+00  1.0255295549E+01
            xcart      0.0000000000E+00  0.0000000000E+00  0.0000000000E+00
                       4.3404000000E+00  2.7956000000E+00  4.3404000000E+00
                       7.5356300000E+01  0.0000000000E+00  2.6910000000E+00
                       5.9898000000E+00  0.0000000000E+00  5.9898000000E+00
                       1.6494000000E+00  2.7956000000E+00  7.0314000000E+00
                       7.0314000000E+00  2.7956000000E+00  1.6494000000E+00
                       1.6494000000E+00  0.0000000000E+00  1.4180800000E+01
                       3.6762000000E+00  2.5995000000E+00  1.6780300000E+01
                       3.6762000000E+00 -2.5995000000E+00  1.6780300000E+01
                       0.0000000000E+00  0.0000000000E+00  1.9379700000E+01
             xred      0.0000000000E+00  0.0000000000E+00  0.0000000000E+00
                       5.0000000000E-01  3.2204405124E-01  1.0851000000E-01
                       8.6808013086E+00  0.0000000000E+00  6.7275000000E-02
                       6.9000552944E-01  0.0000000000E+00  1.4974500000E-01
                       1.9000552944E-01  3.2204405124E-01  1.7578500000E-01
                       8.0999447056E-01  3.2204405124E-01  4.1235000000E-02
                       1.9000552944E-01  0.0000000000E+00  3.5452000000E-01
                       4.2348631463E-01  2.9945396738E-01  4.1950750000E-01
                       4.2348631463E-01 -2.9945396738E-01  4.1950750000E-01
                       0.0000000000E+00  0.0000000000E+00  4.8449250000E-01
            znucl       22.00000    8.00000   46.00000

 chkinp: Checking input parameters for consistency.

== DATASET  1 ==================================================================
-   nproc =    1

 Real(R)+Recip(G) space primitive vectors, cartesian coordinates (Bohr,Bohr^-1):
 R(1)=  8.6808000  0.0000000  0.0000000  G(1)=  0.1151968  0.0000000  0.0000000
 R(2)=  0.0000000  8.6808000  0.0000000  G(2)=  0.0000000  0.1151968  0.0000000
 R(3)=  0.0000000  0.0000000 40.0000000  G(3)=  0.0000000  0.0000000  0.0250000
 Unit cell volume ucvol=  3.0142515E+03 bohr^3
 Angles (23,13,12)=  9.00000000E+01  9.00000000E+01  9.00000000E+01 degrees

 getcut: wavevector=  0.0000  0.0000  0.0000  ngfft=  72  72 320
         ecut(hartree)=     72.600   => boxcut(ratio)=   2.08572

--- Pseudopotential description ------------------------------------------------
- pspini: atom type   1  psp file is ../../../Psps_for_tests/Ti.psp8
- pspatm: opening atomic psp file    ../../../Psps_for_tests/Ti.psp8
- Ti    ONCVPSP-3.2.3.1  r_core=   1.35825   1.31050   1.66360
- 22.00000  12.00000    170504                znucl, zion, pspdat
    8   11    2    4       600   0.00000      pspcod,pspxc,lmax,lloc,mmax,r2well
    5.99000000000000    2.50000000000000    0.00000000000000   rchrg,fchrg,qchrg
     nproj     2     2     2
     extension_switch     1
  pspatm : epsatm=   14.68144390
         --- l  ekb(1:nproj) -->
             0   11.362348    1.263639
             1    1.975402   -0.084666
             2   -5.186090   -1.477451
 pspatm: atomic psp has been read  and splines computed

- pspini: atom type   2  psp file is ../../../Psps_for_tests/O.psp8
- pspatm: opening atomic psp file    ../../../Psps_for_tests/O.psp8
- O     ONCVPSP-3.2.3.1  r_core=   1.35509   1.45563   1.26150
-  8.00000   6.00000    170504                znucl, zion, pspdat
    8   11    2    4       600   0.00000      pspcod,pspxc,lmax,lloc,mmax,r2well
    5.99000000000000    4.00000000000000    0.00000000000000   rchrg,fchrg,qchrg
     nproj     2     2     1
     extension_switch     1
  pspatm : epsatm=    6.19546011
         --- l  ekb(1:nproj) -->
             0    6.056735    0.824024
             1   -4.717130   -1.149271
             2   -1.331955
 pspatm: atomic psp has been read  and splines computed

- pspini: atom type   3  psp file is ../../../Psps_for_tests/Pd.psp8
- pspatm: opening atomic psp file    ../../../Psps_for_tests/Pd.psp8
- Pd    ONCVPSP-3.2.3.1  r_core=   1.41052   1.46191   1.55175
- 46.00000  18.00000    170510                znucl, zion, pspdat
    8   11    2    4       600   0.00000      pspcod,pspxc,lmax,lloc,mmax,r2well
    5.99000000000000    7.00000000000000    0.00000000000000   rchrg,fchrg,qchrg
     nproj     2     2     2
     extension_switch     1
  pspatm : epsatm=   26.09224486
         --- l  ekb(1:nproj) -->
             0    7.845850   -2.282160
             1    3.261104   -0.686948
             2   -1.134855   -0.401224
 pspatm: atomic psp has been read  and splines computed

   1.90216449E+04                                ecore*ucvol(ha*bohr**3)

_setup2: Arith. and geom. avg. npw (full set) are   89056.000   89056.000

=== [ionmov= 5] Simple relaxation of ionic positions

--- Iteration: ( 1/10) Internal Cycle: (1/1)

---SELF-CONSISTENT-FIELD CONVERGENCE--------------------------------------------

     iter   Etot(hartree)      deltaE(h)  residm     vres2
 ETOT  1  -626.20635677329    -6.262E+02 1.864E-01 4.244E+07
 ETOT  2  -69.437111787458     5.568E+02 2.635E-01 3.159E+08
 ETOT  3  -494.37683468738    -4.249E+02 9.235E-01 1.070E+08
 ETOT  4  -711.44761474726    -2.171E+02 7.480E-01 3.845E+06
 ETOT  5  -721.20909497099    -9.761E+00 1.259E-01 8.807E+05
 ETOT  6  -719.12305291144     2.086E+00 3.820E-02 2.362E+06
 ETOT  7  -723.49506661042    -4.372E+00 1.569E-02 3.968E+05
 ETOT  8  -722.89135355909     6.037E-01 1.939E-02 1.137E+06
 ETOT  9  -717.91268673526     4.979E+00 2.117E-02 3.636E+06
 ETOT 10  -705.00075657422     1.291E+01 3.782E-02 8.184E+06

 Cartesian components of stress tensor (hartree/bohr^3)
  sigma(1 1)= -2.00665616E-03  sigma(3 2)= -1.12956753E-04
  sigma(2 2)= -3.18270065E-03  sigma(3 1)=  8.20835304E-04
  sigma(3 3)=  7.29871970E-03  sigma(2 1)=  1.91547601E-04

 scprqt:  WARNING -
  nstep=   10 was not enough SCF cycles to converge;
  maximum energy difference=  1.291E+01 exceeds toldfe=  1.000E-02

 Integrated electronic density in atomic spheres:
 Atom  Sphere_radius  Integrated_density
    1        2.00000          9.38216909
    2        2.00000          9.07463585
    3        2.00000          5.05221218
    4        2.00000          4.34922503
    5        2.00000          2.81198918
    6        2.00000          4.19277018
    7        2.00000         15.66286808
    8        2.00000         15.73429394
    9        2.00000         15.69874281
   10        2.00000         15.73008387

---OUTPUT-----------------------------------------------------------------------

 Cartesian coordinates (xcart) [bohr]
  0.00000000000000E+00  0.00000000000000E+00  0.00000000000000E+00
  4.34040000000000E+00  2.79560000000000E+00  4.34040000000000E+00
  7.53563000000000E+01  0.00000000000000E+00  2.69100000000000E+00
[...]
 -2.62668057080601E+00  1.27612708247759E+00  1.63662853771948E+00
  9.30108003664659E-01 -1.89800459657505E-01 -1.07998140379355E+00
  2.58081151559110E-02 -2.93387374684388E-02 -8.87416662975972E+00
  9.91363938511914E-01 -5.58038837210410E-01 -8.96297998514482E+00
 -8.90289927431144E+00 -9.00186632475847E-01  1.34971153156267E+01
 -5.10302555039369E+00 -9.02344182203489E-01 -1.73579212745661E+01
  9.52229540186328E+00 -1.36605119075620E+00  2.04825952245770E+01
  7.24256117932738E+00  1.96624698642088E+00  9.30479571270848E+00
  2.76067025212614E+00 -3.29917101856941E+00 -2.47637443391423E+01
 Reduced forces (fred)
  4.20168211389952E+01 -3.47453967139554E+01 -6.44706353670996E+02
  2.28016886990528E+01 -1.10778039775714E+01 -6.54651415087792E+01
 -8.07408155821217E+00  1.64761983019487E+00  4.31992561517420E+01
 -2.24035086045432E-01  2.54683712216023E-01  3.54966665190389E+02
 -8.60583207743423E+00  4.84422353805613E+00  3.58519199405793E+02
  7.72842880204428E+01  7.81434011919633E+00 -5.39884612625067E+02
  4.42983441978575E+01  7.83306937687205E+00  6.94316850982645E+02
 -8.26611419244948E+01  1.18584171767164E+01 -8.19303808983080E+02
 -6.28712250855051E+01 -1.70685968397224E+01 -3.72191828508339E+02
 -2.39648263246566E+01  2.86394437779973E+01  9.90549773565693E+02
 Total energy (etotal) [Ha]=  2.73536043442048E+02

 Difference of energy with previous step (new-old):
           Absolute (Ha)=-1.21581E+03
           Relative     =-1.37934E+00

 ----iterations are completed or convergence reached----

 Mean square residual over all n,k,spin=   3.0828E-01; max=  1.0169E+00
 reduced coordinates (array xred) for   10 atoms
       5.012577893670      0.842336107688     -2.313362517840
       1.526704488166     -1.049927993584      3.422978090514
      15.837235831363      1.601397554207      0.618994732500
       1.578283103513      0.236713087000      1.984899340020
       0.690716837668     -1.970579812503     -0.299508244885
       1.091929864814      0.485316570227      0.267511943047
      -3.145691999608      2.467409486421      1.396135668406
      -5.300033757740      1.418301953307     -5.662060517042
      -5.600307535310     -3.481980355943     -0.760137528892
       0.216370270240      0.417145556899      3.565126534173
 rms dE/dt=  3.2992E+02; max dE/dt=  9.9410E+02; dE/dt below (all hartree)
    1      42.157070979182    -34.893349392649   -641.152889612834
    2      22.941938539239    -11.225756656265    -61.911677450617
    3      -7.933831718026      1.499667151501     46.752720209904
    4      -0.083785245859      0.106731033522    358.520129248551
    5      -8.465582237248      4.696270859362    362.072663463955
    6      77.424537860629      7.666387440503   -536.331148566905
    7      44.438594038044      7.685116698178    697.870315040807
    8     -82.520892084309     11.710464498023   -815.750344924918
    9     -62.730975245319    -17.216549518416   -368.638364450177
   10     -23.824576484470     28.491491099304    994.103237623855

 cartesian coordinates (angstrom) at end:
    1     23.02618639925443     3.86942380505065   -48.96714878589067
    2      7.01319418207564    -4.82303481340151    72.45447964010924
    3     72.75121744491045     7.35631033864706    13.10231618705144
    4      7.25012991382821     1.08738453147837    42.01453968335000
    5      3.17293316744842    -9.05221605326290    -6.33971747911031
    6      5.01597803275507     2.22938975627866     5.66244893143895
    7    -14.45030718207816    11.33449334111653    29.55212703279276
    8    -24.34666708764394     6.51522746180460  -119.84933517103934
    9    -25.72602918830722   -15.99510878738414   -16.08989822735189
   10      0.99393611021768     1.91623383267529    75.46334830496025

 cartesian forces (hartree/bohr) at end:
    1     -4.84020149513815     4.00255698944283    16.11765884177489
    2     -2.62668057080601     1.27612708247759     1.63662853771948
    3      0.93010800366466    -0.18980045965750    -1.07998140379355
    4      0.02580811515591    -0.02933873746844    -8.87416662975972
    5      0.99136393851191    -0.55803883721041    -8.96297998514482
    6     -8.90289927431144    -0.90018663247585    13.49711531562667
    7     -5.10302555039369    -0.90234418220349   -17.35792127456612
    8      9.52229540186328    -1.36605119075620    20.48259522457700
    9      7.24256117932738     1.96624698642088     9.30479571270848
   10      2.76067025212614    -3.29917101856941   -24.76374433914232
 frms,max,avg= 8.8506213E+00 2.4763744E+01  -1.616E-02  1.704E-02 -8.884E-02 h/b

 cartesian forces (eV/Angstrom) at end:
    1   -248.89314714609398   205.81973844160970   828.80327147246635
    2   -135.06933429777524    65.62108747647166    84.15881608880925
    3     47.82807254003796    -9.75993123042149   -55.53487199229934
    4      1.32710652841947    -1.50865841208215  -456.32795721383536
    5     50.97797909265234   -28.69550835074927  -460.89492318676128
    6   -457.80544907765375   -46.28945389996888   694.04951667289720
    7   -262.40810232388100   -46.40039955840407  -892.58012466639889
    8    489.65607588964366   -70.24517065487878  1053.25730597895677
    9    372.42743863692533   101.10847678725558   478.47179312963635
   10    141.95936015772520  -169.65018059883232 -1273.40282628347109
 frms,max,avg= 4.5511721E+02 1.2734028E+03  -8.308E-01  8.764E-01 -4.568E+00 e/A
 length scales=  8.680800000000  8.680800000000 40.000000000000 bohr
              =  4.593681512328  4.593681512328 21.167088343600 angstroms
 prteigrs : about to open file totalGeom1Layer_o_EIG
 Fermi (or HOMO) energy (hartree) =  -7.00629   Average Vxc (hartree)=  -0.10958
 Eigenvalues (hartree) for nkpt=   2  k points:
 kpt#   1, nband= 62, wtk=  0.50000, kpt=  0.1250  0.5000  0.5000 (reduced coord)
 -16.39776  -14.81493  -14.80380  -14.79099  -14.40939  -13.10431  -12.82542  -12.69536
 -12.32718  -12.31863  -12.31303  -12.29294  -12.28858  -11.88014  -11.13250  -10.61062
 -10.60277  -10.49489  -10.30432  -10.28781  -10.03467  -10.01345   -9.95687   -9.76758
  -9.74276   -9.70305   -9.43589   -9.27057   -8.99433   -8.88917   -8.88163   -8.82961
  -8.56785   -8.51937   -8.49189   -8.35682   -8.34134   -8.33385   -8.32286   -8.31029
  -8.29159   -8.25573   -8.22824   -8.21306   -8.17952   -8.14723   -8.09162   -8.00266
  -7.91799   -7.86087   -7.66801   -7.50152   -7.44907   -7.39085   -7.25632   -7.23865
  -7.21088   -7.15619   -7.13657   -7.04416   -6.96546   -6.85570
 prteigrs : prtvol=0 or 1, do not print more k-points.

 Components of total free energy (in Hartree) :

    Kinetic energy  =  5.53545484631222E+02
    Hartree energy  =  2.21461732936189E+03
    XC energy       = -1.56518952380260E+02
    Ewald energy    =  3.51025665733075E+02
    PspCore energy  =  6.31056984898496E+00
    Loc. psp. energy= -2.69199685072054E+03
    NL   psp  energy= -3.44720303232429E+00
    >>>>>>>>> Etotal=  2.73536043442048E+02

 Other information on the energy :
    Total energy(eV)=  7.44329427764720E+03 ; Band energy (Ha)=  -1.1715051065E+03
 rms coord change=  2.9218E+00   atom, delta coord (reduced):
     1        5.012577893670      0.842336107688     -2.313362517840
     2        1.026704488166     -1.371972044823      3.314468090514
     3        7.156434522728      1.601397554207      0.551719732500
     4        0.888277574069      0.236713087000      1.835154340020
     5        0.500711308224     -2.292623863743     -0.475293244885
     6        0.281935394258      0.163272518988      0.226276943047
     7       -3.335697529052      2.467409486421      1.041615668406
     8       -5.723520072365      1.118847985931     -6.081568017042
     9       -6.023793849936     -3.182526388567     -1.179645028892
    10        0.216370270240      0.417145556899      3.080634034173

 Cartesian components of stress tensor (hartree/bohr^3)
  sigma(1 1)= -3.00609733E-01  sigma(3 2)=  2.95004728E-03
  sigma(2 2)= -2.88589897E-01  sigma(3 1)=  5.84693551E-03
  sigma(3 3)=  7.84755602E-02  sigma(2 1)= -7.62567535E-04

-Cartesian components of stress tensor (GPa)         [Pressure=  5.0087E+03 GPa]
- sigma(1 1)= -8.84424219E+03  sigma(3 2)=  8.67933729E+01
- sigma(2 2)= -8.49060647E+03  sigma(3 1)=  1.72022753E+02
- sigma(3 3)=  2.30883030E+03  sigma(2 1)= -2.24355077E+01

== END DATASET(S) ==============================================================

 -outvars: echo values of variables after computation  --------
            acell      8.6808000000E+00  8.6808000000E+00  4.0000000000E+01 Bohr
              amu      4.78800000E+01  1.59994000E+01  1.06420000E+02
           diemac      1.20000000E+01
          dilatmx      1.10000000E+00
             ecut      6.00000000E+01 Hartree
           ecutsm      5.00000000E-01 Hartree
           etotal      2.7353604344E+02
            fcart     -4.8402014951E+00  4.0025569894E+00  1.6117658842E+01
                      -2.6266805708E+00  1.2761270825E+00  1.6366285377E+00
                       9.3010800366E-01 -1.8980045966E-01 -1.0799814038E+00
                       2.5808115156E-02 -2.9338737468E-02 -8.8741666298E+00
                       9.9136393851E-01 -5.5803883721E-01 -8.9629799851E+00
                      -8.9028992743E+00 -9.0018663248E-01  1.3497115316E+01
                      -5.1030255504E+00 -9.0234418220E-01 -1.7357921275E+01
                       9.5222954019E+00 -1.3660511908E+00  2.0482595225E+01
                       7.2425611793E+00  1.9662469864E+00  9.3047957127E+00
                       2.7606702521E+00 -3.2991710186E+00 -2.4763744339E+01
-          fftalg         112
           ionmov           5
              ixc          11
              kpt      1.25000000E-01  5.00000000E-01  5.00000000E-01
                       3.75000000E-01  5.00000000E-01  5.00000000E-01
           kptopt           2
         kptrlatt        4    0    0      0    1    0      0    0    1
          kptrlen      8.68080000E+00
P           mkmem           2
            natom          10
            nband          62
            ngfft          72      72     320
             nkpt           2
            nstep          10
             nsym           1
            ntime          10
           ntypat           3
              occ      2.000000  2.000000  2.000000  2.000000  2.000000  2.000000
                       2.000000  2.000000  2.000000  2.000000  2.000000  2.000000
                       2.000000  2.000000  2.000000  2.000000  2.000000  2.000000
                       2.000000  2.000000  2.000000  2.000000  2.000000  2.000000
                       2.000000  2.000000  2.000000  2.000000  2.000000  2.000000
                       2.000000  2.000000  2.000000  2.000000  2.000000  2.000000
                       2.000000  2.000000  2.000000  2.000000  2.000000  2.000000
                       2.000000  2.000000  2.000000  2.000000  2.000000  2.000000
                       2.000000  2.000000  2.000000  2.000000  2.000000  2.000000
                       2.000000  2.000000  2.000000  2.000000  2.000000  2.000000
                       0.000000  0.000000
           shiftk      5.00000000E-01  5.00000000E-01  5.00000000E-01
          spgroup           1
           strten     -3.0060973254E-01 -2.8858989676E-01  7.8475560213E-02
                       2.9500472801E-03  5.8469355098E-03 -7.6256753516E-04
           toldfe      1.00000000E-02 Hartree
            typat      1  1  2  2  2  2  3  3  3  3
              wtk        0.50000    0.50000
           xangst      2.3026186399E+01  3.8694238051E+00 -4.8967148786E+01
                       7.0131941821E+00 -4.8230348134E+00  7.2454479640E+01
                       7.2751217445E+01  7.3563103386E+00  1.3102316187E+01
                       7.2501299138E+00  1.0873845315E+00  4.2014539683E+01
                       3.1729331674E+00 -9.0522160533E+00 -6.3397174791E+00
                       5.0159780328E+00  2.2293897563E+00  5.6624489314E+00
                      -1.4450307182E+01  1.1334493341E+01  2.9552127033E+01
                      -2.4346667088E+01  6.5152274618E+00 -1.1984933517E+02
                      -2.5726029188E+01 -1.5995108787E+01 -1.6089898227E+01
                       9.9393611022E-01  1.9162338327E+00  7.5463348305E+01
            xcart      4.3513186179E+01  7.3121512836E+00 -9.2534500714E+01
                       1.3253016321E+01 -9.1142149267E+00  1.3691912362E+02
                       1.3747987680E+02  1.3901411889E+01  2.4759789300E+01
                       1.3700759965E+01  2.0548589656E+00  7.9395973601E+01
                       5.9959747244E+00 -1.7106209236E+01 -1.1980329795E+01
                       9.4788247705E+00  4.2129360828E+00  1.0700477722E+01
                      -2.7307123110E+01  2.1419088270E+01  5.5845426736E+01
                      -4.6008533044E+01  1.2311995596E+01 -2.2648242068E+02
                      -4.8615149653E+01 -3.0226375074E+01 -3.0405501156E+01
                       1.8782670419E+00  3.6211571503E+00  1.4260506137E+02
             xred      5.0125778937E+00  8.4233610769E-01 -2.3133625178E+00
                       1.5267044882E+00 -1.0499279936E+00  3.4229780905E+00
                       1.5837235831E+01  1.6013975542E+00  6.1899473250E-01
                       1.5782831035E+00  2.3671308700E-01  1.9848993400E+00
                       6.9071683767E-01 -1.9705798125E+00 -2.9950824488E-01
                       1.0919298648E+00  4.8531657023E-01  2.6751194305E-01
                      -3.1456919996E+00  2.4674094864E+00  1.3961356684E+00
                      -5.3000337577E+00  1.4183019533E+00 -5.6620605170E+00
                      -5.6003075353E+00 -3.4819803559E+00 -7.6013752889E-01
                       2.1637027024E-01  4.1714555690E-01  3.5651265342E+00
            znucl       22.00000    8.00000   46.00000

-
-  as well as % of the time and number of calls for node 0-
-<BEGIN_TIMER mpi_nprocs = 1, omp_nthreads = 1, mpi_rank = 0>
- cpu_time =        10318.5, wall_time =        11239.2
-
-                                                                  (-1=no count)
- fourwf%(pot)                3202.188  31.0   3209.915  28.6          74270      -1.00        1.00       1.00
- projbd                      2799.766  27.1   2811.547  25.0         118780      -1.00        1.00       1.00
- nonlop(apply)               2456.734  23.8   2461.982  21.9          74270      -1.00        1.00       1.00
- vtowfk(ssdiag)               474.562   4.6   1368.537  12.2             -1      -1.00        0.35       0.35
- fourwf%(den)                 294.750   2.9    296.164   2.6          12000      -1.00        1.00       1.00
- nonlop(forstr)               128.359   1.2    128.860   1.1           1200      -1.00        1.00       1.00
- xc:pot/=fourdp                68.219   0.7     68.595   0.6            119      -1.00        0.99       0.99
- fourdp                        63.109   0.6     63.624   0.6           1409      -1.00        0.99       0.99
- others (105)                 139.219   1.3    140.459   1.2             -1      -1.00        0.99       0.99
-<END_TIMER>
-
- subtotal                    9626.906  93.3  10549.683  93.9                                  0.91       0.91

- as well as % of the total time and number of calls

-<BEGIN_TIMER mpi_nprocs = 1, omp_nthreads = 1, mpi_rank = world>
- cpu_time =       10318.5, wall_time =       11239.2
-
-                                                                  (-1=no count)
- fourwf%(pot)                3202.188  31.0   3209.915  28.6          74270      -1.00        1.00       1.00
- projbd                      2799.766  27.1   2811.547  25.0         118780      -1.00        1.00       1.00
- nonlop(apply)               2456.734  23.8   2461.982  21.9          74270      -1.00        1.00       1.00
- vtowfk(ssdiag)               474.562   4.6   1368.537  12.2             -1      -1.00        0.35       0.35
- fourwf%(den)                 294.750   2.9    296.164   2.6          12000      -1.00        1.00       1.00
- nonlop(forstr)               128.359   1.2    128.860   1.1           1200      -1.00        1.00       1.00
- xc:pot/=fourdp                68.219   0.7     68.595   0.6            119      -1.00        0.99       0.99
- fourdp                        63.109   0.6     63.624   0.6           1409      -1.00        0.99       0.99
- others (105)                 139.219   1.3    140.459   1.2             -1      -1.00        0.99       0.99
-<END_TIMER>

- subtotal                    9626.906  93.3  10549.683  93.9                                  0.91       0.91

 Suggested references for the acknowledgment of ABINIT usage.

 Calculation completed.
.Delivered  39 WARNINGs and  21 COMMENTs to log file.