.Version 8.6.3 of ABINIT
.(sequential version, prepared for a x86_64_linux_gnu5.4 computer)

 ABINIT is a project of the Universite Catholique de Louvain,
 Corning Inc. and other collaborators, see ~abinit/doc/developers/contributors.txt .
 Please read ~abinit/doc/users/acknowledgments.html for suggested
 acknowledgments of the ABINIT effort.

.Starting date : Tue 17 Apr 2018.
- ( at 00h40 )

- input  file    -> sim2DOS.in
- output file    -> sim2DOS.out
- root for input  files -> sim2DOS_i
- root for output files -> sim2DOS_o

 Symmetries : space group Cm (#  8); Bravais mC (1-face-center monocl.)
     intxc =       0    ionmov =       0      iscf =       7    lmnmax =       6
     lnmax =       6     mgfft =     108  mpssoang =       3    mqgrid =    5199
     natom =      30  nloc_mem =       1    nspden =       1   nspinor =       1
    nsppol =       1      nsym =       2    n1xccc =    2501    ntypat =       3
    occopt =       1   xclevel =       1
-    mband =         160        mffmem =           1         mkmem =          10
       mpw =        3347          nfft =       62208          nkpt =          10
  Rough estimation (10% accuracy) of disk space for files :

------------- Echo of variables that govern the present computation ------------
-
- outvars: echo of selected default values
-   iomode0 =  0 , fftalg0 =112 , wfoptalg0 =  0
-
- outvars: echo of global parameters not present in the input file
-  max_nthreads =    0
-
 -outvars: echo values of preprocessed input variables --------
            acell      8.6808000000E+00  8.6808000000E+00  4.0830000000E+01 Bohr
              amu      4.78800000E+01  1.59994000E+01  1.06420000E+02
           diemac      1.20000000E+01
             ecut      8.00000000E+00 Hartree
-          fftalg         112
           iatsph0       1    2    3    4    5    6    7    8    9   10
                        11   12   13   14   15   16   17   18   19   20
                        21   22   23   24   25   26   27   28   29   30
           istwfk        0    0    0    0    0    7    0    5    6    4
              kpt     -1.25000000E-01  0.00000000E+00  0.00000000E+00
                      -2.50000000E-01  5.00000000E-01  0.00000000E+00
                      -1.25000000E-01  5.00000000E-01  5.00000000E-01
                      -3.75000000E-01  0.00000000E+00  0.00000000E+00
                      -2.50000000E-01  0.00000000E+00  5.00000000E-01
                       5.00000000E-01  5.00000000E-01  0.00000000E+00
                      -3.75000000E-01  5.00000000E-01  5.00000000E-01
                       5.00000000E-01  0.00000000E+00  5.00000000E-01
                       0.00000000E+00  5.00000000E-01  0.00000000E+00
                       0.00000000E+00  0.00000000E+00  5.00000000E-01
           kptopt           2
         kptrlatt        4   -1    1      0    2    0     -4   -1    1
          kptrlen      1.73616000E+01
P           mkmem          10
            natom          30
           natsph       30
            nband         160
            ngfft          24      24     108
             nkpt          10
            nstep          10
             nsym           2
           ntypat           3
              occ      2.000000  2.000000  2.000000  2.000000  2.000000  2.000000
                       2.000000  2.000000  2.000000  2.000000  2.000000  2.000000
                       2.000000  2.000000  2.000000  2.000000  2.000000  2.000000
                       2.000000  2.000000  2.000000  2.000000  2.000000  2.000000
                       2.000000  2.000000  2.000000  2.000000  2.000000  2.000000
                       2.000000  2.000000  2.000000  2.000000  2.000000  2.000000
                       2.000000  2.000000  2.000000  2.000000  2.000000  2.000000
                       2.000000  2.000000  2.000000  2.000000  2.000000  2.000000
                       2.000000  2.000000  2.000000  2.000000  2.000000  2.000000
                       2.000000  2.000000  2.000000  2.000000  2.000000  2.000000
                       2.000000  2.000000  2.000000  2.000000  2.000000  2.000000
                       2.000000  2.000000  2.000000  2.000000  2.000000  2.000000
                       2.000000  2.000000  2.000000  2.000000  2.000000  2.000000
                       2.000000  2.000000  2.000000  2.000000  2.000000  2.000000
                       2.000000  2.000000  2.000000  2.000000  2.000000  2.000000
                       2.000000  2.000000  2.000000  2.000000  2.000000  2.000000
                       2.000000  2.000000  2.000000  2.000000  2.000000  2.000000
                       2.000000  2.000000  2.000000  2.000000  2.000000  2.000000
                       2.000000  2.000000  2.000000  2.000000  2.000000  2.000000
                       2.000000  2.000000  2.000000  2.000000  2.000000  2.000000
                       2.000000  2.000000  2.000000  2.000000  2.000000  2.000000
                       2.000000  2.000000  2.000000  2.000000  2.000000  2.000000
                       2.000000  2.000000  2.000000  2.000000  2.000000  2.000000
                       2.000000  2.000000  2.000000  2.000000  2.000000  2.000000
                       2.000000  2.000000  2.000000  2.000000  2.000000  2.000000
                       2.000000  2.000000  2.000000  2.000000  2.000000  2.000000
                       0.000000  0.000000  0.000000  0.000000
           prtdos           3
           shiftk      5.00000000E-01  0.00000000E+00  5.00000000E-01
          spgroup           8
           symrel      1  0  0   0  1  0   0  0  1       0  1  0   1  0  0   0  0  1
           toldfe      1.00000000E-06 Hartree
            typat      1  1  1  1  1  1  2  2  2  2  2  2  2  2  2  2  2  2  3  3
                       3  3  3  3  3  3  3  3  3  3
              wtk        0.12500    0.12500    0.12500    0.12500    0.12500    0.06250
                         0.12500    0.06250    0.06250    0.06250
           xangst      0.0000000000E+00  0.0000000000E+00  0.0000000000E+00
                       0.0000000000E+00  0.0000000000E+00  2.9586826909E+00
                       0.0000000000E+00  0.0000000000E+00  5.9173653819E+00
                       2.2968407562E+00  2.2968407562E+00  1.4793678043E+00
                       2.2968407562E+00  2.2968407562E+00  4.4379975776E+00
                       2.2968407562E+00  2.2968407562E+00  7.3967331862E+00
                       3.4452611342E+00  1.1484203781E+00  0.0000000000E+00
                       3.4452611342E+00  1.1484203781E+00  2.9586826909E+00
                       3.4452611342E+00  1.1484203781E+00  5.9173653819E+00
                       1.1484203781E+00  3.4452611342E+00  0.0000000000E+00
                       1.1484203781E+00  3.4452611342E+00  2.9586826909E+00
                       1.1484203781E+00  3.4452611342E+00  5.9173653819E+00
                       1.1484203781E+00  1.1484203781E+00  0.0000000000E+00
                       1.1484203781E+00  1.1484203781E+00  2.9586826909E+00
                       1.1484203781E+00  1.1484203781E+00  5.9173653819E+00
                       3.4452611342E+00  3.4452611342E+00  0.0000000000E+00
                       3.4452611342E+00  3.4452611342E+00  2.9586826909E+00
                       3.4452611342E+00  3.4452611342E+00  5.9173653819E+00
                       0.0000000000E+00  0.0000000000E+00  1.3825124998E+01
                       0.0000000000E+00  0.0000000000E+00  1.7715847507E+01
                       0.0000000000E+00  0.0000000000E+00  2.1606570015E+01
                       1.9453612542E+00  1.9453612542E+00  9.9344024900E+00
                       1.9453612542E+00  1.9453612542E+00  1.3825124998E+01
                       1.9453612542E+00  1.9453612542E+00  1.7715847507E+01
                       1.9453612542E+00  0.0000000000E+00  1.1879763744E+01
                       1.9453612542E+00  0.0000000000E+00  1.5770486253E+01
                       1.9453612542E+00  0.0000000000E+00  1.9661208761E+01
                       0.0000000000E+00  1.9453612542E+00  1.1879763744E+01
                       0.0000000000E+00  1.9453612542E+00  1.5770486253E+01
                       0.0000000000E+00  1.9453612542E+00  1.9661208761E+01
            xcart      0.0000000000E+00  0.0000000000E+00  0.0000000000E+00
                       0.0000000000E+00  0.0000000000E+00  5.5911000000E+00
                       0.0000000000E+00  0.0000000000E+00  1.1182200000E+01
                       4.3404000000E+00  4.3404000000E+00  2.7956000000E+00
                       4.3404000000E+00  4.3404000000E+00  8.3866000000E+00
                       4.3404000000E+00  4.3404000000E+00  1.3977800000E+01
                       6.5106000000E+00  2.1702000000E+00  0.0000000000E+00
                       6.5106000000E+00  2.1702000000E+00  5.5911000000E+00
                       6.5106000000E+00  2.1702000000E+00  1.1182200000E+01
                       2.1702000000E+00  6.5106000000E+00  0.0000000000E+00
                       2.1702000000E+00  6.5106000000E+00  5.5911000000E+00
                       2.1702000000E+00  6.5106000000E+00  1.1182200000E+01
                       2.1702000000E+00  2.1702000000E+00  0.0000000000E+00
                       2.1702000000E+00  2.1702000000E+00  5.5911000000E+00
                       2.1702000000E+00  2.1702000000E+00  1.1182200000E+01
                       6.5106000000E+00  6.5106000000E+00  0.0000000000E+00
                       6.5106000000E+00  6.5106000000E+00  5.5911000000E+00
                       6.5106000000E+00  6.5106000000E+00  1.1182200000E+01
                       0.0000000000E+00  0.0000000000E+00  2.6125700000E+01
                       0.0000000000E+00  0.0000000000E+00  3.3478100000E+01
                       0.0000000000E+00  0.0000000000E+00  4.0830500000E+01
                       3.6762000000E+00  3.6762000000E+00  1.8773300000E+01
                       3.6762000000E+00  3.6762000000E+00  2.6125700000E+01
                       3.6762000000E+00  3.6762000000E+00  3.3478100000E+01
                       3.6762000000E+00  0.0000000000E+00  2.2449500000E+01
                       3.6762000000E+00  0.0000000000E+00  2.9801900000E+01
                       3.6762000000E+00  0.0000000000E+00  3.7154300000E+01
                       0.0000000000E+00  3.6762000000E+00  2.2449500000E+01
                       0.0000000000E+00  3.6762000000E+00  2.9801900000E+01
                       0.0000000000E+00  3.6762000000E+00  3.7154300000E+01
             xred      0.0000000000E+00  0.0000000000E+00  0.0000000000E+00
                       0.0000000000E+00  0.0000000000E+00  1.3693607641E-01
                       0.0000000000E+00  0.0000000000E+00  2.7387215283E-01
                       5.0000000000E-01  5.0000000000E-01  6.8469262797E-02
                       5.0000000000E-01  5.0000000000E-01  2.0540289003E-01
                       5.0000000000E-01  5.0000000000E-01  3.4234141563E-01
                       7.5000000000E-01  2.5000000000E-01  0.0000000000E+00
                       7.5000000000E-01  2.5000000000E-01  1.3693607641E-01
                       7.5000000000E-01  2.5000000000E-01  2.7387215283E-01
[...]
    Ewald energy    =  1.43687160702811E+05
    PspCore energy  =  7.42363952509545E+01
    Loc. psp. energy= -3.28855896570679E+03
    NL   psp  energy=  4.00871379416468E+01
    >>>>>>>>> Etotal=  1.42216989947610E+05

 Other information on the energy :
    Total energy(eV)=  3.86992110487818E+06 ; Band energy (Ha)=  -2.3616482941E+02

 Cartesian components of stress tensor (hartree/bohr^3)
  sigma(1 1)=  2.90003889E-02  sigma(3 2)=  5.06119437E-05
  sigma(2 2)=  2.90003889E-02  sigma(3 1)=  5.06119437E-05
  sigma(3 3)= -4.67546153E+01  sigma(2 1)=  2.05725752E-05

-Cartesian components of stress tensor (GPa)         [Pressure=  4.5795E+05 GPa]
- sigma(1 1)=  8.53220754E+02  sigma(3 2)=  1.48905454E+00
- sigma(2 2)=  8.53220754E+02  sigma(3 1)=  1.48905454E+00
- sigma(3 3)= -1.37556804E+06  sigma(2 1)=  6.05265956E-01

== END DATASET(S) ==============================================================

 -outvars: echo values of variables after computation  --------
            acell      8.6808000000E+00  8.6808000000E+00  4.0830000000E+01 Bohr
              amu      4.78800000E+01  1.59994000E+01  1.06420000E+02
           diemac      1.20000000E+01
             ecut      8.00000000E+00 Hartree
           etotal      1.4221698995E+05
            fcart      9.7777720863E-02  9.7777720863E-02 -2.8799999582E+08
                      -6.1560105567E-04 -6.1560105567E-04  1.4022767257E+00
                      -4.6176648637E-03 -4.6176648637E-03 -2.0052254979E+00
                      -1.5481894224E-02 -1.5481894224E-02  1.8171602874E+00
                      -4.0241579489E-03 -4.0241579489E-03 -2.8788564936E-01
                      -6.1244008141E-03 -6.1244008141E-03 -1.8688391691E+00
                      -8.2693804090E-01  8.0920796570E-01 -1.0571115567E+00
                      -5.8152198541E-01  5.7595305761E-01 -6.5728861080E-01
                      -6.6498936492E-01  6.6089698086E-01  1.2470832763E+00
                       8.0920796570E-01 -8.2693804090E-01 -1.0571115567E+00
                       5.7595305761E-01 -5.8152198541E-01 -6.5728861080E-01
                       6.6089698086E-01 -6.6498936492E-01  1.2470832763E+00
                       8.3798773576E-01  8.3798773576E-01 -1.0187767309E+00
                       5.7660293459E-01  5.7660293459E-01 -6.5401172681E-01
                       6.6284511401E-01  6.6284511401E-01  1.2541229119E+00
                      -8.0781125476E-01 -8.0781125476E-01 -1.0887330927E+00
                      -5.7452263381E-01 -5.7452263381E-01 -6.5661704734E-01
                      -6.6397896426E-01 -6.6397896426E-01  1.2422822014E+00
                      -2.8227482098E-01 -2.8227482098E-01 -1.2873186635E-01
                      -9.0606937653E-02 -9.0606937653E-02  6.7586607595E-02
                      -3.4811726439E-02 -3.4811726439E-02  2.8799999888E+08
                       6.0908637401E-02  6.0908637401E-02  1.4272931300E-01
                       2.8373272315E-01  2.8373272315E-01 -1.1875090876E-01
                       9.6346437216E-02  9.6346437216E-02  8.4108025237E-02
                       9.2208039962E-02 -1.2165686732E-01 -6.3402051905E-02
                       2.0115032155E-01 -1.8604473104E-01  1.7778436798E-01
                      -8.8188108750E-02 -1.4085135118E-03 -2.6836426869E-01
                      -1.2165686732E-01  9.2208039962E-02 -6.3402051905E-02
                      -1.8604473104E-01  2.0115032155E-01  1.7778436798E-01
                      -1.4085135118E-03 -8.8188108750E-02 -2.6836426869E-01
-          fftalg         112
           iatsph0       1    2    3    4    5    6    7    8    9   10
                        11   12   13   14   15   16   17   18   19   20
                        21   22   23   24   25   26   27   28   29   30
           istwfk        0    0    0    0    0    7    0    5    6    4
              kpt     -1.25000000E-01  0.00000000E+00  0.00000000E+00
                      -2.50000000E-01  5.00000000E-01  0.00000000E+00
                      -1.25000000E-01  5.00000000E-01  5.00000000E-01
                      -3.75000000E-01  0.00000000E+00  0.00000000E+00
                      -2.50000000E-01  0.00000000E+00  5.00000000E-01
                       5.00000000E-01  5.00000000E-01  0.00000000E+00
                      -3.75000000E-01  5.00000000E-01  5.00000000E-01
                       5.00000000E-01  0.00000000E+00  5.00000000E-01
                       0.00000000E+00  5.00000000E-01  0.00000000E+00
                       0.00000000E+00  0.00000000E+00  5.00000000E-01
           kptopt           2
         kptrlatt        4   -1    1      0    2    0     -4   -1    1
          kptrlen      1.73616000E+01
P           mkmem          10
            natom          30
           natsph       30
            nband         160
            ngfft          24      24     108
             nkpt          10
            nstep          10
             nsym           2
           ntypat           3
              occ      2.000000  2.000000  2.000000  2.000000  2.000000  2.000000
                       2.000000  2.000000  2.000000  2.000000  2.000000  2.000000
                       2.000000  2.000000  2.000000  2.000000  2.000000  2.000000
                       2.000000  2.000000  2.000000  2.000000  2.000000  2.000000
                       2.000000  2.000000  2.000000  2.000000  2.000000  2.000000
                       2.000000  2.000000  2.000000  2.000000  2.000000  2.000000
                       2.000000  2.000000  2.000000  2.000000  2.000000  2.000000
                       2.000000  2.000000  2.000000  2.000000  2.000000  2.000000
                       2.000000  2.000000  2.000000  2.000000  2.000000  2.000000
                       2.000000  2.000000  2.000000  2.000000  2.000000  2.000000
                       2.000000  2.000000  2.000000  2.000000  2.000000  2.000000
                       2.000000  2.000000  2.000000  2.000000  2.000000  2.000000
                       2.000000  2.000000  2.000000  2.000000  2.000000  2.000000
                       2.000000  2.000000  2.000000  2.000000  2.000000  2.000000
                       2.000000  2.000000  2.000000  2.000000  2.000000  2.000000
                       2.000000  2.000000  2.000000  2.000000  2.000000  2.000000
                       2.000000  2.000000  2.000000  2.000000  2.000000  2.000000
                       2.000000  2.000000  2.000000  2.000000  2.000000  2.000000
                       2.000000  2.000000  2.000000  2.000000  2.000000  2.000000
                       2.000000  2.000000  2.000000  2.000000  2.000000  2.000000
                       2.000000  2.000000  2.000000  2.000000  2.000000  2.000000
                       2.000000  2.000000  2.000000  2.000000  2.000000  2.000000
                       2.000000  2.000000  2.000000  2.000000  2.000000  2.000000
                       2.000000  2.000000  2.000000  2.000000  2.000000  2.000000
                       2.000000  2.000000  2.000000  2.000000  2.000000  2.000000
                       2.000000  2.000000  2.000000  2.000000  2.000000  2.000000
                       0.000000  0.000000  0.000000  0.000000
           prtdos           3
           shiftk      5.00000000E-01  0.00000000E+00  5.00000000E-01
          spgroup           8
           strten      2.9000388877E-02  2.9000388877E-02 -4.6754615276E+01
                       5.0611943716E-05  5.0611943716E-05  2.0572575160E-05
           symrel      1  0  0   0  1  0   0  0  1       0  1  0   1  0  0   0  0  1
           toldfe      1.00000000E-06 Hartree
            typat      1  1  1  1  1  1  2  2  2  2  2  2  2  2  2  2  2  2  3  3
                       3  3  3  3  3  3  3  3  3  3
              wtk        0.12500    0.12500    0.12500    0.12500    0.12500    0.06250
                         0.12500    0.06250    0.06250    0.06250
           xangst      0.0000000000E+00  0.0000000000E+00  0.0000000000E+00
                       0.0000000000E+00  0.0000000000E+00  2.9586826909E+00
                       0.0000000000E+00  0.0000000000E+00  5.9173653819E+00
                       2.2968407562E+00  2.2968407562E+00  1.4793678043E+00
                       2.2968407562E+00  2.2968407562E+00  4.4379975776E+00
                       2.2968407562E+00  2.2968407562E+00  7.3967331862E+00
                       3.4452611342E+00  1.1484203781E+00  0.0000000000E+00
                       3.4452611342E+00  1.1484203781E+00  2.9586826909E+00
                       3.4452611342E+00  1.1484203781E+00  5.9173653819E+00
                       1.1484203781E+00  3.4452611342E+00  0.0000000000E+00
                       1.1484203781E+00  3.4452611342E+00  2.9586826909E+00
                       1.1484203781E+00  3.4452611342E+00  5.9173653819E+00
                       1.1484203781E+00  1.1484203781E+00  0.0000000000E+00
                       1.1484203781E+00  1.1484203781E+00  2.9586826909E+00
                       1.1484203781E+00  1.1484203781E+00  5.9173653819E+00
                       3.4452611342E+00  3.4452611342E+00  0.0000000000E+00
                       3.4452611342E+00  3.4452611342E+00  2.9586826909E+00
                       3.4452611342E+00  3.4452611342E+00  5.9173653819E+00
                       0.0000000000E+00  0.0000000000E+00  1.3825124998E+01
                       0.0000000000E+00  0.0000000000E+00  1.7715847507E+01
                       0.0000000000E+00  0.0000000000E+00  2.1606570015E+01
                       1.9453612542E+00  1.9453612542E+00  9.9344024900E+00
                       1.9453612542E+00  1.9453612542E+00  1.3825124998E+01
                       1.9453612542E+00  1.9453612542E+00  1.7715847507E+01
                       1.9453612542E+00  0.0000000000E+00  1.1879763744E+01
                       1.9453612542E+00  0.0000000000E+00  1.5770486253E+01
                       1.9453612542E+00  0.0000000000E+00  1.9661208761E+01
                       0.0000000000E+00  1.9453612542E+00  1.1879763744E+01
                       0.0000000000E+00  1.9453612542E+00  1.5770486253E+01
                       0.0000000000E+00  1.9453612542E+00  1.9661208761E+01
            xcart      0.0000000000E+00  0.0000000000E+00  0.0000000000E+00
                       0.0000000000E+00  0.0000000000E+00  5.5911000000E+00
                       0.0000000000E+00  0.0000000000E+00  1.1182200000E+01
                       4.3404000000E+00  4.3404000000E+00  2.7956000000E+00
                       4.3404000000E+00  4.3404000000E+00  8.3866000000E+00
                       4.3404000000E+00  4.3404000000E+00  1.3977800000E+01
                       6.5106000000E+00  2.1702000000E+00  0.0000000000E+00
                       6.5106000000E+00  2.1702000000E+00  5.5911000000E+00
                       6.5106000000E+00  2.1702000000E+00  1.1182200000E+01
                       2.1702000000E+00  6.5106000000E+00  0.0000000000E+00
                       2.1702000000E+00  6.5106000000E+00  5.5911000000E+00
                       2.1702000000E+00  6.5106000000E+00  1.1182200000E+01
                       2.1702000000E+00  2.1702000000E+00  0.0000000000E+00
                       2.1702000000E+00  2.1702000000E+00  5.5911000000E+00
                       2.1702000000E+00  2.1702000000E+00  1.1182200000E+01
                       6.5106000000E+00  6.5106000000E+00  0.0000000000E+00
                       6.5106000000E+00  6.5106000000E+00  5.5911000000E+00
                       6.5106000000E+00  6.5106000000E+00  1.1182200000E+01
                       0.0000000000E+00  0.0000000000E+00  2.6125700000E+01
                       0.0000000000E+00  0.0000000000E+00  3.3478100000E+01
                       0.0000000000E+00  0.0000000000E+00  4.0830500000E+01
                       3.6762000000E+00  3.6762000000E+00  1.8773300000E+01
                       3.6762000000E+00  3.6762000000E+00  2.6125700000E+01
                       3.6762000000E+00  3.6762000000E+00  3.3478100000E+01
                       3.6762000000E+00  0.0000000000E+00  2.2449500000E+01
                       3.6762000000E+00  0.0000000000E+00  2.9801900000E+01
                       3.6762000000E+00  0.0000000000E+00  3.7154300000E+01
                       0.0000000000E+00  3.6762000000E+00  2.2449500000E+01
                       0.0000000000E+00  3.6762000000E+00  2.9801900000E+01
                       0.0000000000E+00  3.6762000000E+00  3.7154300000E+01
             xred      0.0000000000E+00  0.0000000000E+00  0.0000000000E+00
                       0.0000000000E+00  0.0000000000E+00  1.3693607641E-01
                       0.0000000000E+00  0.0000000000E+00  2.7387215283E-01
                       5.0000000000E-01  5.0000000000E-01  6.8469262797E-02
                       5.0000000000E-01  5.0000000000E-01  2.0540289003E-01
                       5.0000000000E-01  5.0000000000E-01  3.4234141563E-01
                       7.5000000000E-01  2.5000000000E-01  0.0000000000E+00
                       7.5000000000E-01  2.5000000000E-01  1.3693607641E-01
                       7.5000000000E-01  2.5000000000E-01  2.7387215283E-01
                       2.5000000000E-01  7.5000000000E-01  0.0000000000E+00
                       2.5000000000E-01  7.5000000000E-01  1.3693607641E-01
                       2.5000000000E-01  7.5000000000E-01  2.7387215283E-01
                       2.5000000000E-01  2.5000000000E-01  0.0000000000E+00
                       2.5000000000E-01  2.5000000000E-01  1.3693607641E-01
                       2.5000000000E-01  2.5000000000E-01  2.7387215283E-01
                       7.5000000000E-01  7.5000000000E-01  0.0000000000E+00
                       7.5000000000E-01  7.5000000000E-01  1.3693607641E-01
                       7.5000000000E-01  7.5000000000E-01  2.7387215283E-01
                       0.0000000000E+00  0.0000000000E+00  6.3986529513E-01
                       0.0000000000E+00  0.0000000000E+00  8.1993877051E-01
                       0.0000000000E+00  0.0000000000E+00  1.0000122459E+00
                       4.2348631463E-01  4.2348631463E-01  4.5979181974E-01
                       4.2348631463E-01  4.2348631463E-01  6.3986529513E-01
                       4.2348631463E-01  4.2348631463E-01  8.1993877051E-01
                       4.2348631463E-01  0.0000000000E+00  5.4982855743E-01
                       4.2348631463E-01  0.0000000000E+00  7.2990203282E-01
                       4.2348631463E-01  0.0000000000E+00  9.0997550820E-01
                       0.0000000000E+00  4.2348631463E-01  5.4982855743E-01
                       0.0000000000E+00  4.2348631463E-01  7.2990203282E-01
                       0.0000000000E+00  4.2348631463E-01  9.0997550820E-01
            znucl       22.00000    8.00000   46.00000

-
-  as well as % of the time and number of calls for node 0-
-<BEGIN_TIMER mpi_nprocs = 1, omp_nthreads = 1, mpi_rank = 0>
- cpu_time =         2599.0, wall_time =         2607.0
-
-                                                                  (-1=no count)
- projbd                       222.859   8.6    223.283   8.6         147138      -1.00        1.00       1.00
- nonlop(apply)                150.828   5.8    149.516   5.7          92769      -1.00        1.01       1.01
- fourwf%(pot)                  89.359   3.4     91.137   3.5          92769      -1.00        0.98       0.98
- vtowfk(ssdiag)                47.688   1.8     48.470   1.9             -1      -1.00        0.98       0.98
- others (109)                  26.516   1.0     26.763   1.0             -1      -1.00        0.99       0.99
-<END_TIMER>
-
- subtotal                     537.250  20.7    539.169  20.7                                  1.00       1.00

- as well as % of the total time and number of calls

-<BEGIN_TIMER mpi_nprocs = 1, omp_nthreads = 1, mpi_rank = world>
- cpu_time =        2599.0, wall_time =        2607.0
-
-                                                                  (-1=no count)
- projbd                       222.859   8.6    223.283   8.6         147138      -1.00        1.00       1.00
- nonlop(apply)                150.828   5.8    149.516   5.7          92769      -1.00        1.01       1.01
- fourwf%(pot)                  89.359   3.4     91.137   3.5          92769      -1.00        0.98       0.98
- vtowfk(ssdiag)                47.688   1.8     48.470   1.9             -1      -1.00        0.98       0.98
- others (109)                  26.516   1.0     26.763   1.0             -1      -1.00        0.99       0.99
-<END_TIMER>

- subtotal                     537.250  20.7    539.169  20.7                                  1.00       1.00

 Suggested references for the acknowledgment of ABINIT usage.

 Calculation completed.
.Delivered   4 WARNINGs and   1 COMMENTs to log file.